id	area	title	year	x	y	ix
2784584	Vision	survival exponential entropies	2005	-6.695107733216041	-2.376491269896928	2784611
2785596	ML	computation of c-optimal designs for models with correlated observations	2017	-6.628896073716245	-2.6052667044010684	2785623
2787407	Robotics	bootstrap tests for the time constancy of multifractal attributes	2008	-6.350607814040816	-2.779277267745162	2787434
2788426	ML	some restriction tests in a new class of regression models for proportions	2009	-6.614426678631205	-2.8232730663669017	2788453
2788639	Logic	a test for archimedeanity in bivariate copula models	2012	-6.883223152639665	-2.212059725425619	2788666
2788759	ML	randomly generating portfolio-selection covariance matrices with specified distributional characteristics	2007	-6.693682108410952	-2.141700387212772	2788786
2788892	SE	a nonparametric test for testing exponentiality against nbuca class of life distributions based on laplace transform	2016	-6.483169066065451	-2.3347396429882536	2788919
2788941	ML	designs for weighted least squares regression, with estimated weights	2013	-6.576321920178612	-3.0752583338740016	2788968
2793121	EDA	enhanced box-muller method for high quality gaussian random number generation	2018	-6.5416967974356295	-2.394921884184912	2793148
2798337	EDA	likelihood-based risk estimation for variance-gamma models	2018	-6.42703360875945	-2.9018038013571763	2798364
2800297	ML	generalized f-tests for the multivariate normal mean	2009	-6.5310318894814685	-3.0060993393707203	2800324
2800645	ML	a nonlinear population monte carlo scheme for the bayesian estimation of parameters of α-stable distributions	2016	-6.690432747611956	-3.0277715486339827	2800672
2801832	ML	empirical likelihood ratio for linear transformation models with doubly censored data	2012	-6.684265231036577	-2.6020990678168596	2801859
2804604	ML	a minimum hellinger distance estimator for stochastic differential equations: an application to statistical inference for continuous time interest rate models	2008	-6.6278476208962225	-2.86438746192624	2804631
2805312	ML	a program for the bayesian neural network in the root framework	2011	-6.484304622759263	-2.4996265904570665	2805339
2807357	DB	the use of order statistics in estimation	1968	-6.645149544805608	-2.7293213094117745	2807384
2808856	ML	simultaneous confidence intervals by iteratively adjusted alpha for relative effects in the one-way layout	2006	-6.346045580146528	-2.4348685113020023	2808883
2809522	AI	semiparametric analysis of the additive hazards model with informatively interval-censored failure time data	2018	-6.392549577344942	-3.040726805403403	2809549
2811046	ML	a comparative study for the location and scale parameters of the weibull distribution with given shape parameter	2008	-6.555164060040865	-2.8208283343325253	2811073
2811237	Theory	random-number and random-variate generation: automatic random variate generation for simulation input	2000	-6.896175173228412	-3.0127482015550737	2811264
2816736	Theory	on measure theoretical structure of multivariate information among random variables	1974	-6.452177895451168	-2.4451815153867456	2816763
2817001	AI	goodness-of-fit tests for stationary distributions of markov chains based on rao's divergence	1998	-6.8217872552830405	-2.5526016864159216	2817028
2818882	ML	a heuristic for moment-matching scenario generation	2003	-6.637441062412862	-2.476438094394603	2818909
2819433	ML	moderate deviations of generalized method of moments and empirical likelihood estimators	2011	-6.593669509822402	-3.0376513497600577	2819460
2821371	ML	nonparametric estimation of an extreme-value copula in arbitrary dimensions	2011	-6.785055015222938	-2.9131902161938763	2821398
2821404	ML	estimating the parameters of a generalized lambda distribution	2007	-6.563725258149858	-2.732666876863436	2821431
2824130	ML	performance of interval estimators for the inverse hypergeometric distribution	2015	-6.447427082542991	-2.2422305913068654	2824157
2824512	Vision	bias-correction in dea efficiency scores using simulated beta samples: an alternative view of bootstrapping in dea	2018	-6.312570229251813	-2.9431095959142946	2824539
2824852	ML	gibbs sampling approach for generation of truncated multivariate gaussian random variables	1999	-6.859485691621613	-2.8846950862597116	2824879
2825022	ECom	linear approximate ml estimation in scaled type i generalized logistic distribution based on type-ii censored samples	2017	-6.971851337927176	-2.940072937753382	2825049
2829502	ML	comparison of hyperbolic and constant width simultaneous confidence bands in multiple linear regression under mvcs criterion	2009	-6.477836742634849	-2.7658859151727966	2829529
2829625	Theory	some generalizations of the laplace distribution	2006	-6.788443198645132	-2.407946387261201	2829652
2832626	Robotics	estimation of the riig-distribution parameters using the artificial neural networks	2013	-6.766652773265968	-2.7909163564749755	2832653
2833768	ML	multivariate extended gamma distribution	2017	-6.5659984843052674	-2.7764290630469466	2833795
2836994	ML	globally robust confidence intervals for simple linear regression	2010	-6.272128968116622	-3.07295041145883	2837021
2838272	ML	how many samples required in big data collection: a differential message importance measure	2018	-6.608970733888102	-2.3020018944652967	2838299
2838534	ML	simulation smoothing for state-space models: a computational efficiency analysis	2011	-6.59801961168782	-3.0796784338301904	2838561
2839533	Vision	analysis of relaxation processes: the two-node two-label case	1983	-6.744379252421853	-2.785386445161084	2839560
2841601	ML	a mixture model-based approach to the clustering of exponential repeated data	2009	-6.630344459180408	-2.6779856600832597	2841628
2842632	AI	a general maximum likelihood analysis of overdispersion in generalized linear models	1996	-6.508785466667277	-3.0612422552029415	2842659
2843233	DB	the cumulative distribution function for a finite data set	2012	-7.067707875102623	-2.6550029368741983	2843260
2844796	ML	on the asymptotic power of the likelihood ratio criterion for testing the hypothesis of nonstationarity of an autoregressive series with cauchy innovations	2004	-6.759871496210451	-2.879519485858732	2844823
2845160	ML	bounds on rényi and shannon entropies for finite mixtures of multivariate skew-normal distributions: application to swordfish (xiphias gladius linnaeus)	2016	-6.716005030041343	-2.782147700183584	2845187
2845774	Visualization	exact inference for laplace quantile, reliability, and cumulative hazard functions based on type-ii censored data	2016	-6.541735364595486	-2.408109739514079	2845801
2846315	ML	testing exponentiality based on the kullback-leibler information with the type ii censored data	2005	-6.383531795054138	-2.4356287621792183	2846342
2847827	Theory	hermite normality tests	1997	-7.140061393554012	-2.589461109663579	2847854
2852091	ML	a class of tests for the two-sample problem for count data	2017	-6.607298426139921	-2.973642012985866	2852118
2852778	Theory	em-based maximum likelihood parameter estimation for multivariate generalized hyperbolic distributions with fixed lambda	2004	-6.982377063771278	-2.2682275210075447	2852805
2854403	ML	nonparametric estimation of the mixing distribution in logistic regression mixed models with random intercepts and slopes	2014	-6.492091855326335	-3.04501996380044	2854430
2856355	ML	splitting with weight windows to control the likelihood ratio in importance sampling	2006	-6.2970302461238665	-2.2289252127854096	2856382
2857438	Logic	practical small-sample asymptotics for distributions used in life-data analysis	2000	-6.803172564280128	-2.9164834207896453	2857465
2859227	ML	rectification of plant measurements using a statistical framework	2005	-6.310210507790532	-2.5660645441863696	2859254
2860275	AI	coverage probability of prediction intervals for discrete random variables	2008	-6.29469321595975	-2.1939068296535003	2860302
2861590	HPC	markov chain monte carlo simulations	2008	-6.412828707979357	-2.5618166899574817	2861617
2861950	Metrics	on evaluating the performance of different forecasters	2018	-6.401276651438259	-2.4933870246473973	2861977
2862353	ML	integral-type tests for goodness-of-fit	2010	-6.6613315849380275	-2.697772811114713	2862380
2863179	ML	simultaneous confidence bands for contrasts between several nonlinear regression curves	2017	-6.778792743225149	-2.8042153304411093	2863206
2863317	Logic	time-dependent copulas	2012	-6.563546784820613	-2.6467312553037945	2863344
2863747	Theory	an approximation to the null distribution of a class of cramér-von mises statistics	2015	-6.930780866652981	-3.049880940610478	2863774
2865841	HCI	a monte carlo study of the accuracy and robustness of ten bivariate location estimators	2003	-6.315610837127467	-3.0169689152847785	2865868
2866779	ML	an improved class of estimators for the population variance	2013	-6.749398069473548	-2.8321675821839376	2866806
2867111	ML	iterative proportional scaling via decomposable submodels for contingency tables	2009	-6.706354039028686	-2.9048251902216617	2867138
2868861	AI	comparisons of tests of distributional assumption in poisson regression model	2017	-6.292791317462328	-2.9891012630838936	2868888
2868910	ML	a short note on multivariate dependence modeling	2013	-6.470108537016211	-2.6030297555864133	2868937
2869446	AI	a comparison of various approaches to the exponential random graph model: a reanalysis of 102 student networks in school classes	2007	-6.292981782281048	-3.0944578389835584	2869473
2870404	EDA	quantile estimation using conditional monte carlo and latin hypercube sampling	2017	-6.269935940085199	-2.2642544230837363	2870431
2873519	NLP	on the family of multivariate chi-square copulas	2016	-6.649014111117115	-2.8704332006611697	2873546
2876125	ML	an improved nonparametric estimator of sub-distribution function for bivariate competing risk models	2014	-6.335326109886853	-2.6133264015908453	2876152
2876489	EDA	a nonparametric test procedure based on quantiles for the right censored data	2015	-6.780925187375526	-2.6671199431641743	2876516
2877624	Metrics	bit error rate comparison statistics and hypothesis tests for inverse sampling (negative binomial) experiments	2016	-7.127896383877071	-2.3546908775911475	2877651
2879600	Robotics	on monte carlo simulation of the bit error rate	2011	-7.108202156209793	-2.3403147057152807	2879627
2882579	Theory	construction of two new general classes of bivariate distributions based on stochastic orders	2015	-6.52591481155509	-2.5908657756308884	2882606
2883204	ML	bivariate birnbaum-saunders distribution and associated inference	2010	-6.794338659581803	-2.6879851198631073	2883231
2887648	AI	population stochastic modelling (psm) - an r package for mixed-effects models based on stochastic differential equations	2009	-6.492235624950633	-2.93662434845704	2887675
2891483	ML	detecting change-points in multidimensional stochastic processes	2006	-6.503161934698872	-3.0935715869507088	2891510
2891769	ML	nonparametric tests for multi-parameter m-estimators	2017	-6.9044102903979825	-2.9863529598680167	2891796
2893496	AI	nonparametric estimations of non-negative random variables distributions	2003	-6.668191742758743	-2.268155214611789	2893523
2895817	ML	on the distribution of penalized maximum likelihood estimators: the lasso, scad, and thresholding	2009	-6.758885696878393	-2.9618991570177853	2895844
2898678	ML	tail distribution of the maximum of correlated gaussian random variables	2015	-6.5791088233976245	-2.36432605479435	2898705
2898707	ML	em algorithm for one-shot device testing with competing risks under exponential distribution	2015	-6.387504766783768	-2.7085235380905903	2898734
2899301	ML	robust estimation for the covariance matrix of multivariate time series based on normal mixtures	2013	-6.734377564732048	-2.9550079436206884	2899328
2899624	EDA	a mixed model-assisted regression estimator that uses variables employed at the design stage	2006	-6.602927825703634	-2.9587154629982706	2899651
2900913	PL	consistent testing for a constant copula under strong mixing based on the tapered block multiplier technique	2013	-6.742829783456112	-2.7170584626536423	2900940
2900962	Vision	statistical inference for generalized random coefficient autoregressive model	2012	-6.638625586468782	-2.9098067827949667	2900989
2902039	AI	a comparison of l-, lq-, tl-moment and maximum likelihood high quantile estimates of the gpd and gev distribution	2017	-6.6760357310658875	-2.9848333906912843	2902066
2902937	HPC	asymptotic distribution of the ols estimator for a mixed spatial model	2010	-6.5424972289701735	-3.032799665945931	2902964
2903111	EDA	a modified friedman test for randomized complete block designs	2017	-6.4814957461035885	-2.7677546271650173	2903138
2904637	ML	estimators for unnormalized statistical models based on self density ratio	2014	-6.8441700523077795	-3.056950928290508	2904664
2906923	ML	bootstrapping the hausman test in panel data models	2013	-6.5490118862679845	-2.8572450578656965	2906950
2908179	Vision	the optimum classifier and the performance evaluation by bayesian approach	2000	-6.5581353362986095	-2.752468557313936	2908206
2908501	ML	rayleigh mixture distribution	2011	-7.108005790791759	-2.5456603338574832	2908528
2909548	ML	inference with the median of a prior	2006	-6.609991504337107	-3.0888344802000214	2909575
2909669	Theory	on the generalized cumulative residual entropy with applications in actuarial science	2017	-6.774421947091057	-2.1482478311184128	2909696
2910206	AI	pairwise multiple comparison adjustment procedure for survival functions with right-censored data	2017	-6.337480304680906	-2.7382401942958654	2910233
2910976	Metrics	an exact permutation method for testing any effect in balanced and unbalanced fixed effect anova	2010	-6.629080158259307	-2.7907505626989164	2911003
2911000	Web+IR	overlapping batch quantiles	1995	-6.693564843285617	-2.506601029408636	2911027
2911004	ML	some simple method of estimation for the parameters of the discrete stable distribution with the probability generating function	2009	-6.745764349752103	-2.455781579041956	2911031
2913475	ML	matching moments for a closer approximation of the weighted (h, φ)-divergence test statistics in goodness-of-fit for finite samples	2005	-6.667687080502665	-2.5985143454962696	2913502
2916374	ML	generalized laguerre expansions of multivariate probability densities with moments	2010	-7.121923920528117	-2.246911365347121	2916401
2916468	ML	two-sample prediction for progressively type-ii censored weibull lifetimes	2017	-6.5555478039500095	-2.556990102424517	2916495
2917255	Metrics	statistical inference on progressive type-ii censored data from extreme-value distribution	2012	-6.674852177578324	-2.5008869216397414	2917282
2917487	ML	estimation of the proportion ratio under a simple crossover trial	2012	-6.283262355152062	-2.711669090049892	2917514
2918162	Metrics	the complementary exponential power lifetime model	2011	-6.4335236524843715	-2.226581358806468	2918189
2920961	ML	adaptive estimation of quantiles in a simulation model	2018	-6.9589214035196045	-2.3533985543795715	2920988
2921165	Metrics	propositions for confidence interval in systematic sampling on real line	2016	-6.404310365703758	-2.8349930177827383	2921192
2921911	Vision	tuning of adaptive interacting particle system for rare event probability estimation	2016	-6.436979526865388	-2.4176345216812107	2921938
2922866	ML	the quantum relative entropy as a rate function and information criteria	2013	-6.544608642022383	-2.2928644342025275	2922893
2924981	ML	a new asymmetric class of bivariate copulas for modeling dependence	2017	-6.726949643778279	-2.3514466091823576	2925008
2926578	AI	comparisons of approximate confidence interval procedures for type i censored data	2000	-6.425506337484313	-2.2604738477681736	2926605
2926720	Theory	lognormal sum approximation with a variant of type iv pearson distribution	2008	-6.850830843768862	-2.4620800748006584	2926747
2927859	HPC	erratum: sample size determination for the false discovery rate	2009	-6.509922571327914	-2.250100247558769	2927886
2931297	ML	upcrossing first passage times for correlated gaussian processes	2005	-6.839860242107668	-2.5866776365882687	2931324
2932032	ML	large-deviation results for discriminant statistics of gaussian locally stationary processes	2012	-6.96471788858335	-2.8579114930847327	2932059
2934661	Theory	generation of pseudorandom numbers with specified univariate distributions and correlation coefficients	1975	-6.851588913975909	-2.4044152987750484	2934688
2935067	Theory	multivariate archimax copulas	2014	-6.372101964846682	-2.217890043883428	2935094
2936893	ML	testing procedures for detection of linear dependencies in efficiency models	2009	-6.3405007284657895	-2.6977680561802537	2936920
2939267	ML	a revisit to the singh, horn, singh and mangat's randomization device for estimating a rare sensitive attribute using poisson distribution	2015	-6.319373246080269	-2.221525360202208	2939294
2940594	ML	conditional tests for homogeneity of zero-inflated poisson and poisson-hurdle distributions	2013	-6.315366708397484	-2.647476612242538	2940621
2940858	SE	consistent multiple testing for change points	2011	-6.397449361200514	-2.7331022027117537	2940885
2941126	AI	bias correction for the least squares estimator of weibull shape parameter with complete and censored data	2006	-6.347948509858703	-2.740613165477355	2941153
2941367	ML	sample sizes for improved binomial confidence intervals	2004	-6.470403217191496	-2.4836827702258684	2941394
2941855	ML	the agreement between the generalized p value and bayesian evidence in the one-sided testing problem	2016	-6.340650323172972	-3.025913040529109	2941882
2945279	ML	accurate computation of the right tail of the sum of dependent log-normal variates	2017	-6.596175651883729	-2.4161186535678048	2945306
2945320	ML	asymptotic normality and berry-esseen results for conditional density estimator with censored and dependent data	2010	-6.533743911224465	-3.03758940451591	2945347
2948046	ML	bayesian detection with the posterior distribution of the likelihood ratio	2010	-6.513541831900966	-2.697404816916248	2948073
2949373	EDA	low bias integrated path estimators	2007	-6.851956438915561	-2.55857297702294	2949400
2950887	ML	the randomized dependence coefficient	2013	-6.824795088044031	-2.963339657519906	2950914
2951621	Graphics	nonparametric multiple comparison procedures for ordered parameters in balanced incomplete blocks	2004	-6.45091192316984	-2.6173248567984246	2951648
2951756	Robotics	on the properties of the rank based multivariate exponentially weighted moving average control charts	2007	-6.620324316210102	-2.4666160990973514	2951783
2956171	ML	common probability patterns arise from simple invariances	2016	-7.001443412295003	-2.414726695845187	2956198
2956331	ML	computation of the arl for cusum-s	2006	-6.875886457962495	-2.201052097721266	2956358
2956697	Theory	antithetic and negatively associated random variables and function maximization	2008	-6.559093845618168	-2.7014805924247	2956724
2957438	ML	models and algorithms for distributionally robust least squares problems	2014	-6.542507597319571	-2.4854076010602366	2957465
2958991	ML	on the weak convergence of the empirical conditional copula under a simplifying assumption	2018	-6.954903411520407	-2.9060486076797085	2959018
2959978	SE	kriging metamodel with modified nugget-effect: the heteroscedastic variance case	2011	-6.392264525136357	-2.9008553893237616	2960005
2961850	ML	finite element approach to clustering of multidimensional time series	2010	-6.767133802748237	-3.0420499651362967	2961877
2962086	AI	critical review and comparison of continuity correction methods: the normal approximation to the binomial distribution	2018	-6.517099622123982	-2.2668152585630623	2962113
2962533	AI	estimation of reliability in a series system with random sample size	2011	-6.383561585997387	-2.570365073521035	2962560
2962676	HCI	statistical inference with plsc using bootstrap confidence intervals	2018	-6.518202112031263	-2.491383329196186	2962703
2963164	ML	fast robust sur with economical and actuarial applications	2017	-6.37708160254345	-2.8049219659655957	2963191
2963518	Theory	multivariate countermonotonicity and the minimal copulas	2017	-6.762301955656053	-2.319676926662874	2963545
2965795	ML	deviation detection with continuous observations	2015	-6.542123992981371	-2.2544060424649897	2965822
2966271	ML	on the comparison of some randomized response techniques under unequal probability sampling and super-population modelling	2015	-6.297459588550223	-2.255603040142747	2966298
2966298	SE	alternative parameter estimation methods for the compound poisson software reliability model with clustered failure data	1997	-6.284493848805147	-2.2740924794526194	2966325
2967475	EDA	on some multiple decision procedures for normal variances	2007	-6.455876799905066	-2.6583582404975616	2967502
2969544	Vision	fisher information and optimal schemes in progressive type-ii censored samples	2007	-6.427853013777837	-2.2294725993292923	2969571
2969737	AI	the use of mixtures for dealing with non-normal regression errors	2005	-6.377891000276216	-3.0112263095019465	2969764
2972222	HCI	modelling bivariate survival data based on reversed hazard rate	2015	-6.285623511271008	-2.858365484711753	2972249
2973968	ML	a new generalization of the gamma distribution with application to negatively skewed survival data	2018	-6.62565384437455	-2.8583896172882985	2973995
2974253	AI	quantile prediction for time series in the fraction-of-time probability framework	2002	-6.49476685718035	-2.8600301347869754	2974280
2975286	ML	monte carlo approximations of the quantiles of a sample statistic	2009	-6.530796715470474	-2.655886796932412	2975313
2975710	ML	bayesian analysis for a fractional population growth model	2017	-6.340394568475606	-2.7897246068329147	2975737
2979458	ML	markov chain monte carlo in stastical mechanics - the problem of accuracy	2001	-7.030760209217937	-2.2442537895822663	2979485
2980138	ML	a new powerful version of the bus test of normality	2015	-6.497539797617409	-2.7246573084238626	2980165
2980620	ML	the criterion of hypothesis testing on the covariance function of a gaussian stochastic process	2014	-6.703725576435362	-2.81806272309848	2980647
2981592	AI	estimating reliability in proportional odds ratio models	2009	-6.546439030895254	-2.395518944612125	2981619
2983740	ML	network inference from a link-traced sample using approximate bayesian computation	2017	-6.4605790039604996	-3.047915626161465	2983767
2984424	AI	asymptotic powers for matched trend tests and robust matched trend tests in case-control genetic association studies	2010	-6.27084946931054	-2.8647061435731964	2984451
2984820	AI	the validation of a beta-binomial model for overdispersed binomial data	2017	-6.345272850881343	-2.8218958033577555	2984847
2985356	DB	a generalization of the slashed distribution via alpha skew normal distribution	2014	-6.729303890849954	-2.156296585391609	2985383
2986062	ML	statistical hypothesis test for the difference between hirsch indices of two pareto-distributed random samples	2012	-6.3481974162226935	-2.2855299053088425	2986089
2986313	Visualization	"""comments on """"a fast digital computer method for recursive estimation of the mean"""""""	1972	-6.498828641293907	-2.5554705800420763	2986340
2986806	ML	compound poisson inar(1) processes: stochastic properties and testing for overdispersion	2014	-6.540223133919188	-2.4858232080473868	2986833
2989950	ECom	assessing and comparing the accuracy of various bootstrap methods	2018	-6.285354803985318	-2.6077786021096707	2989977
2990480	AI	heuristic diagnostics for the presence of pure error in computer simulation models	1990	-6.5267276028640175	-2.2611523213083378	2990507
2990798	EDA	a note on estimation of a distribution function in a nonparametric set-up using stein's shrinkage estimation technique	2015	-6.75311557368082	-2.8698072623962623	2990825
2991128	ML	markov chain order estimation with conditional mutual information	2013	-6.733676601480727	-2.8179229730620583	2991155
2991651	ML	non-parametric analysis of a proportional wearout model for accelerated degradation data	2006	-6.635243892005582	-2.202002733856817	2991678
2992112	Visualization	a new discrete modified weibull distribution	2014	-6.524057349142876	-2.195978487801268	2992139
2993482	ML	bootstrap methods for multivariate hypothesis testing	2017	-6.596254385948924	-3.0529102899287084	2993509
2995130	ML	robust inference	2011	-6.653004572631452	-2.6601735409058818	2995157
2996133	AI	modelling using an extended yule distribution	2011	-6.851564062785011	-2.2496908717766817	2996160
2997037	ML	which exact test is more powerful in testing the hardy-weinberg law?	2008	-6.433399671912174	-2.851335893154612	2997064
2997854	ML	bootstrap and fast double bootstrap tests of cointegration rank with financial time series	2008	-6.271417502581773	-2.8381086181923294	2997881
3000761	AI	regression lines: more than meets the eye	2000	-6.298177098438983	-2.5110379918603694	3000788
3001994	AI	least squares approximation to the distribution of project completion times with gaussian uncertainty	2016	-6.868086619059354	-2.8022538533006465	3002021
3002561	ML	estimation of farima parameters in the case of negative memory and stable noise	2013	-6.627351442659164	-2.765761728372514	3002588
3004276	ML	statistical inference for lindley model based on type ii censored data	2017	-6.639438113570916	-2.664802292356611	3004303
3006081	ML	testing constancy in monotone response models	2014	-6.375925635109335	-2.8946995023633897	3006108
3006257	Crypto	one-factor lévy-frailty copulas with inhomogeneous trigger rates	2016	-6.981714979835947	-2.667974064923351	3006284
3006395	ML	approximation of power in multivariate analysis	2005	-6.9090827167997775	-2.542327853783908	3006422
3006447	Robotics	capturing parameter uncertainty in simulations with correlated inputs	2010	-6.501403307907029	-2.993458144797072	3006474
3006663	Vision	minimax estimation of a probability of success under linex loss	2007	-6.824574414011854	-2.749039428556213	3006690
3008749	ML	borrowing strength in hierarchical bayes: convergence of the dirichlet base measure	2013	-6.671679511293132	-2.5544907291957357	3008776
3008975	Vision	blind separation of linear instantaneous mixtures using closed-form estimators	2001	-7.0305390467425015	-2.6685181084897356	3009002
3010061	ML	the stability test for symmetric alpha-stable distributions	2005	-6.392623952695843	-2.845054294847478	3010088
3012189	EDA	a d-optimal design for estimation of parameters of an exponential-linear growth curve of nanostructures	2014	-7.135344752991929	-2.5890428281662934	3012216
3013134	Theory	galton's quincunx: random walk or chaos?	2007	-6.393000663175565	-2.4314126312187785	3013161
3015948	ML	density reconstructions with errors in the data	2014	-6.489701030538571	-2.286087575285784	3015975
3016780	ML	on the power transformation of kernel-based tests for serial correlation in vector time series: some finite sample results and a comparison with the bootstrap	2008	-6.633534762305138	-3.0261411426938887	3016807
3017380	ML	itô-sde mcmc method for bayesian characterization of errors associated with data limitations in stochastic expansion methods for uncertainty quantification	2017	-6.7536888936379125	-2.1383889253137696	3017407
3017531	AI	statistical inference for the common mean of two log-normal distributions and some applications in reliability	2006	-6.613588976907589	-2.6123388990406085	3017558
3019034	ML	data-driven and optimal denoising of a signal and recovery of its derivative using multiwavelets	2004	-7.004539415365953	-3.0113482394003204	3019061
3021614	Theory	generating random series with known values of kendall's tau	2001	-6.64412946954821	-2.4891261935091156	3021641
3022085	ML	using the em algorithm for inference in a mixture of distributions with censored but partially identifiable data	2007	-6.800544946553498	-2.6323190382744786	3022112
3022455	DB	a skewed truncated t distribution	2004	-6.804711211059419	-2.2577473739601226	3022482
3022685	ML	illum information	2017	-6.664441006396087	-2.9060922111430534	3022712
3023563	AI	on monitoring process variance with individual observations	2010	-6.506740374069376	-2.390223835126538	3023590
3024426	ECom	ranked-set-sample-based tests for normal and exponential means	2007	-6.281966746753566	-2.5257603658336847	3024453
3024764	ML	robustness analysis of three classical correlation coefficients under contaminated gaussian model	2014	-6.705784878103668	-3.0023186730947433	3024791
3024869	ML	one-stage multiple comparisons with the control for exponential location parameters under heteroscedasticity	2010	-6.441522325346162	-2.5853246582774467	3024896
3025970	Metrics	approximating passage time distributions in queueing models by bayesian expansion	2010	-6.902573793800384	-2.4533324777501897	3025997
3027274	ML	modifications of the empirical likelihood interval estimation with improved coverage probabilities	2009	-6.6308215550985095	-2.7492768996833647	3027301
3028748	ML	méthodes de monte carlo em et approximations particulaires : application à la calibration d'un modèle de volatilité stochastique. (monte carlo em methods and particle approximations: application to the calibration of a stochastic volatility model.)	2013	-6.9371057199559285	-2.7321313915252223	3028775
3029755	AI	computational comparison of prediction intervals of future observation for two-parameter exponential distribution	2007	-6.708351544528033	-2.1896833193897702	3029782
3030190	ML	an extension of likelihood-ratio-test for testing linear hypotheses in the baseline-category logit model	2008	-6.486490061219095	-2.7523479869205363	3030217
3030807	Theory	a note on approximations to discrete probability distributions	1959	-6.714318161541053	-2.7390996159715995	3030834
3031100	ML	parameter estimation for the 4-parameter asymmetric exponential power distribution by the method of l-moments using r	2014	-6.416359257530644	-2.9614541036216258	3031127
3031634	ML	selection of models of lagged identification rates and lagged association rates using aic and qaic	2007	-6.4151377099241635	-2.9271937493894398	3031661
3032786	ML	visim: sequential simulation for linear inverse problems	2008	-6.9178711486107245	-2.952926830074578	3032813
3035792	ML	uniformly efficient simulation for tail probabilities of gaussian random fields	2014	-6.670625030602175	-2.235822125423174	3035819
3037307	ECom	the kumaraswamy-transmuted exponentiated modified weibull distribution	2017	-6.618792488409389	-2.184156878144226	3037334
3038079	ML	estimation of parameters for trend-renewal processes	2012	-6.355859424259293	-2.2222742725967155	3038106
3039096	ML	measures of qualitative variation in the case of maximum entropy	2017	-6.422185059538556	-2.73493949320356	3039123
3039637	Comp.	fixing the nonconvergence bug in logistic regression with splus and sas	2003	-6.385025163427259	-2.9993426450418093	3039664
3042666	ML	minimaxity in predictive density estimation with parametric constraints	2013	-6.917559694316102	-2.978238684408045	3042693
3043533	ML	estimation of the data region using extreme-value distributions	2004	-6.53871169451766	-3.0291561474974595	3043560
3046470	ML	choosing the optimal set of instruments from large instrument sets	2006	-6.752283986236906	-2.7976828553375017	3046497
3051670	Theory	bootstrap tolerance and confidence limits for two-variable reliability using independent and weakly dependent observations	2001	-6.571994708806066	-2.502799338005902	3051697
3056628	AI	on the online estimation of local constant volatilities	2012	-6.354430285428867	-2.961715554973837	3056655
3058771	ML	variance reduction for quantile estimation via correlation induction	1992	-6.716481483784247	-2.2110863744354465	3058798
3059254	ML	three-way multidimensional scaling: formal properties and relationships between scaling methods	2005	-7.168165511353355	-2.222680497871385	3059281
3059606	ML	exact sequential test of equivalence hypothesis based on bivariate non-central t-statistics	2014	-6.440383022229493	-2.8027174970126136	3059633
3061116	ECom	parametric proportional odds frailty models	2007	-6.476827920620682	-3.081036225998777	3061143
3062566	ML	a comparison of five steady-state truncation heuristics for simulation	2000	-6.804192216148124	-2.141870279378393	3062593
3063014	AI	statistically efficient construction of α-risk-minimizing portfolio	2012	-6.389592597578497	-3.070837374949709	3063041
3063546	ECom	simultaneous closeness of k-records	2013	-6.62811681803118	-2.515725716466217	3063573
3063932	Metrics	the sizes of the three popular asymptotic tests for testing homogeneity of two binomial proportions	2006	-6.610257152592268	-2.6730170714145753	3063959
3064174	ML	percentile estimation in inverse gaussian distributions	2014	-6.736498350950493	-2.7004996071437395	3064201
3064312	ML	optimal tests for homogeneity of covariance, scale, and shape	2009	-6.890801035452383	-3.017006399922885	3064339
3064678	AI	incorporating the auxiliary information available in variance estimation	2005	-6.5331672739953355	-3.0822755886146163	3064705
3067823	ECom	simultaneous inferences for ordered exponential location parameters under unbalanced data and heteroscedasticity of scale parameters	2017	-6.306113092187178	-2.8600115361002896	3067850
3068107	ML	strong convergence rate of estimators of change point and its application	2009	-6.873837652553738	-2.6950392341549643	3068134
3068132	Robotics	adaptive sampling rule for ranking-and-selection problem	2017	-6.318557215981718	-2.2616287221876483	3068159
3070880	Robotics	bivariate copulas on the hotelling's t2 control chart	2018	-6.484752932335543	-2.450492322717078	3070907
3071852	ML	on the asymptotic t-test for large nonstationary panel models	2012	-6.4628488153604495	-2.8024098974344303	3071879
3072808	ECom	exponentiated chen distribution: properties and estimation	2017	-6.574488578661119	-2.755188700887812	3072835
3073014	Theory	extremes of a bivariate pareto distribution	2011	-6.464976185040294	-2.2311522697424513	3073041
3073570	Metrics	constrained variants of the gravity model and spatial dependence: model specification and estimation issues	2013	-6.308021152549487	-3.0802088396526384	3073597
3075526	HPC	estimation of the reliability of a stress-strength system from power lindley distributions	2015	-6.279080912829155	-2.3049727030827656	3075553
3077240	HPC	confidence intervals for quantiles with standardized time series	2013	-6.691660358842543	-2.4768008416848937	3077267
3077568	ML	two-way anova models with unbalanced data	1993	-6.324475563718747	-2.5465531447577567	3077595
3081271	ML	resampling methods for ranked set samples	2006	-6.680681240260687	-2.7926060124488927	3081298
3083425	ML	tests for normal mixtures based on the empirical characteristic function	2005	-6.811086893234338	-2.77270530542519	3083452
3085059	ML	progressively type-ii censored competing risks data from lomax distributions	2011	-6.564550637749629	-2.4890913768053244	3085086
3085175		a general first-order global sensitivity analysis method	2008	-6.482610605326707	-2.4045899675877678	3085202
3086739	Embedded	change detection in teletraffic models	2000	-6.320029734157418	-2.5225610305011346	3086766
3087505	AI	on the extremal behavior of a pareto process: an alternative for armax modeling	2012	-6.824553803794188	-2.5771457195393466	3087532
3087627	PL	laboratory experiments in information retrieval	2018	-6.536886577349284	-2.3050204920293598	3087654
3088153	ML	minimum mutual information and non-gaussianity through the maximum entropy method: estimation from finite samples	2013	-6.723720556406943	-3.0037330555360167	3088180
3089567	AI	a stochastic gompertz model with logarithmic therapy functions: parameters estimation	2012	-6.576284487143796	-2.2965789916817134	3089594
3090071	ML	the cost of not knowing the radius	2008	-6.6818995146660125	-2.589183563319212	3090098
3092831	Theory	special values of the bivariate gaussian distribution	2013	-6.398456065112878	-2.708869206006633	3092858
3094323	ML	facilitating score and causal inference trees for large observational studies	2012	-6.416775936390481	-2.5449909713092893	3094350
3097552	DB	determining the number of segments for piece-wise linear representation of discrete-time signals	2019	-6.468795820087969	-2.5918712051823625	3097579
3100310	ML	learning continuous functions through a new linear regression method	2004	-6.578053795648731	-2.2283807206419315	3100337
3101050	ML	random effects specifications in eigenvector spatial filtering: a simulation study	2015	-6.590605185336276	-3.0558247817176225	3101077
3101902	ML	exploring the impact of multivariate garch innovations on hypothesis testing for cointegrating vectors	2013	-6.364448182905594	-3.0850577327496342	3101929
3104637	ML	asymptotic expansions for the location invariant moment-type estimator	2010	-6.980320303845049	-2.487054111165422	3104664
3105034	Theory	partially recursive acceptance rejection	2011	-6.830044575936428	-2.666104562070788	3105061
3110619	ML	partial marginal likelihood estimation for general transformation models	2014	-6.643435586578269	-2.8314485291279197	3110646
3111283	ML	a random effects epidemic-type aftershock sequence model	2011	-6.5452185694578775	-2.8654738450744057	3111310
3112342	Robotics	an empirical bayes approach to point estimation in adaptive control	1972	-6.6645757067657785	-2.9826977965833534	3112369
3113416	ML	improved variance estimation of maximum likelihood estimators in stable first-order dynamic regression models	2014	-6.562431390536452	-2.8566550414796645	3113443
3116147	AI	parametric inference for progressive type-i hybrid censored data on a simple step-stress accelerated life test model	2009	-6.410169609185614	-2.1387788894837207	3116174
3116336	ML	robust hypothesis testing with $\alpha $ -divergence	2016	-7.0990308243512406	-2.7515373751275867	3116363
3117518	AI	multivariate skew-symmetric distributions	2003	-6.955479631233512	-2.404210450864312	3117545
3117964	ML	modeling heterogeneity for bivariate survival data by shared gamma frailty regression model	2013	-6.529579882109753	-2.5845410376408027	3117991
3119360	NLP	phi-divergence statistics for the likelihood ratio order: an approach based on log-linear models	2014	-6.3178303628959105	-2.9466190286037004	3119387
3120406	Theory	testing the number of components of the mixture of two inverse weibull distributions	2009	-6.63911016892192	-3.008664835667642	3120433
3120480	ML	comparison of mode estimation methods and application in molecular clock analysis	2003	-6.277623355810017	-2.7807812866311608	3120507
3121963	ML	non-asymptotic calibration and resolution	2005	-6.689728204753502	-2.8324342394222684	3121990
3122395	ML	on the worst and least possible asymptotic dependence	2016	-6.403592768692006	-2.276893873651828	3122422
3124260	Metrics	a bootstrapping market implied moment matching calibration for models with time-dependent parameters	2014	-6.780413648277488	-2.367092397923434	3124287
3127509	ML	an importance sampling method based on a one-step look-ahead density from a markov chain	2011	-7.104581971554286	-2.929636265986208	3127536
3128378	ECom	advances in economics and econometrics: theory and applications, ninth world congress	2007	-6.3004547298552	-2.695490944203977	3128405
3128461	ML	on the evaluation of the joint distribution of order statistics	2008	-6.425757613492408	-2.2128988463213988	3128488
3128576	HPC	a test for multivariate skew-normality based on its canonical form	2014	-6.551810829354997	-2.5215460065451287	3128603
3128728	ML	record values from the inverse weibull lifetime model: different methods of estimation	2010	-6.446781607594144	-2.474558273235856	3128755
3131896	ML	using inverse probability weighting estimators to evaluate various propensity scores when treatment switching exists	2016	-6.35848998594853	-2.7151878215702308	3131923
3132393	ML	non asymptotic minimax estimation of functionals with noisy observations	2012	-6.570419567192153	-2.4018631533913113	3132420
3133522	Vision	on shrinkage estimation for the scale parameter of weibull distribution	2008	-6.378534580985428	-2.7345258194839572	3133549
3134414	Metrics	zero-inflated models and estimation in zero-inflated poisson distribution	2018	-6.558378862906793	-2.8025601421260764	3134441
3135261	ML	estimation of parameters of a mixture distribution using quantile functions	2014	-6.821478552669765	-2.9753244496166373	3135288
3135805	ML	choosing between higher moment maximum entropy models and its application to homogeneous point processes with random effects	2017	-6.345103050589197	-2.5489303290068177	3135832
3136329	ML	parameter estimation for a modified weibull distribution, for progressively type-ii censored samples	2005	-6.505395037636008	-2.755370252466139	3136356
3136968	ML	robust nonparametric tests for the two-sample location problem	2011	-6.397703014969653	-3.0586142855316787	3136995
3137524	ML	archimedean copulas with applications to var estimation	2016	-6.753401334630018	-2.198512977421728	3137551
3138495	HPC	heuristics for the regression of stochastic simulations	2013	-6.373169101459662	-2.3559865118037098	3138522
3138695	ML	a new generalized confidence interval for the among-group variance in the heteroscedastic one-way random effects model	2017	-6.639953893693033	-2.8972768076634248	3138722
3139371	AI	the admissibility of the lrt for the exponential family model	2005	-6.867940806518956	-2.392374503967543	3139398
3141088	EDA	using central composite designs in simulation experiments	1992	-6.399252553308995	-2.5395674344675747	3141115
3143544	ML	moment inequality on new renewal better than used class of life distributions with hypothesis testing application	2004	-6.458472858551231	-2.3006466978251416	3143571
3144383	AI	parameter estimation for generalized pareto distribution by generalized probability weighted moment-equations	2017	-6.475533662342447	-2.6175195631848367	3144410
3144706	AI	generating daily changes in market variables using a multivariate mixture of normal distributions	2001	-6.530366763736144	-2.735454243294477	3144733
3148956	ECom	properties and inference for a new class of skew-t distributions	2016	-6.754484771645617	-2.558283810094097	3148983
3150014	ML	a glm approach to estimating copula models	2015	-6.652714906516893	-2.9338927695871027	3150041
3152479	ML	flexible integro-difference equation modeling for spatio-temporal data	2017	-6.317856482198683	-2.9659202465844974	3152506
3155057	ML	empirical likelihood inference in linear regression with nonignorable missing response	2014	-6.51954432020918	-2.9921707251974814	3155084
3155333	Vision	the estimation of heavy-tailed probability density functions, their mixtures and quantiles	2002	-6.661881702413293	-2.7722210964441776	3155360
3157410	ML	transformations, regression geometry and r	2003	-6.792337683880078	-2.521975657936885	3157437
3159161	ML	gaussian fluctuations for sample covariance matrices with dependent data	2013	-6.748268410547843	-3.0215928338547653	3159188
3159165	EDA	parametric bootstrap tests for unbalanced three-factor nested designs under heteroscedasticity	2016	-6.329870748514291	-2.9012947882648366	3159192
3159239	Vision	improvement on estimating quantiles in finite population using indirect methods of estimation	1997	-6.426144348168192	-2.839897189629215	3159266
3159245	ML	parameters estimation for a new generalized geometric distribution	2015	-6.6552866836632685	-2.381881236386607	3159272
3159277	AI	testing a linear relationship in varying coefficient spatial autoregressive models	2018	-6.466664168787707	-3.0796210334191865	3159304
3160971	Vision	a smooth nonparametric approach to multivariate process capability	2001	-6.2652936901654455	-2.7958121870845023	3160998
3162675	ML	bahadur-kiefer representations for time dependent quantile processes	2018	-6.745873456126009	-2.372210240106735	3162702
3165025	ML	metropolized independent sampling with comparisons to rejection sampling and importance sampling	1996	-7.033521486394987	-2.566995704155834	3165052
3166403	ML	exchangeability characterizes optimality of sequential normalized maximum likelihood and bayesian prediction	2012	-7.163540147264831	-2.787787933786876	3166430
3167064	ML	why cannot we have a strongly consistent family of skew normal (and higher order) distributions	2017	-6.820374006154278	-2.238797478733302	3167091
3167518	ML	union-intersection permutation solution for two-sample equivalence testing	2016	-6.842255536172928	-2.7116048730927123	3167545
3167898	Vision	can we define a best estimator in simple one-dimensional cases? [lecture notes]	2013	-6.895087524954755	-2.731751502566804	3167925
3168165	NLP	two-sample similarity test for the expected value of random intervals	2016	-6.482980031744393	-2.7972680733940685	3168192
3168638	Theory	efficient simulations for a bernoulli mixture model of portfolio credit risk	2018	-6.381946611903563	-2.9434262938107474	3168665
3168997	ML	high-dimensional edgeworth expansion of a test statistic on independence and its error bound	2010	-6.920084692146933	-2.5407455180289595	3169024
3169406	ML	transfer theorem concerning asymptotic expansions for the distribution functions of statistics	2014	-6.819462389507872	-2.524191359898882	3169433
3170925	Logic	inference for repeated measures models under heteroscedasticity	2012	-6.418549085436128	-2.9690026960981712	3170952
3172533	Theory	coupling control variates for markov chain monte carlo	2009	-6.7841093201107565	-2.317672653537597	3172560
3175520	ML	control variates and importance sampling for efficient bootstrap simulations	1996	-6.600554910073888	-2.6614075821685583	3175547
3177715	AI	estimating the variance of the predictor in stochastic kriging	2016	-6.428712495479683	-2.9630330305984214	3177742
3178717	Visualization	inverse invariant distributions	1990	-6.788940355523528	-2.5334788444230267	3178744
3179871	ML	relationship between brier score and area under the binormal roc curve	2002	-6.274026576676111	-2.7202983488939667	3179898
3180224	ML	functional coefficient autoregressive conditional root model	2012	-6.829753455797019	-2.88083479182794	3180251
3184808	DB	on q-logistic and related models	2006	-6.597619167376328	-2.356777168187433	3184835
3186993	Metrics	computational limits to nonparametric estimation for ergodic processes	2011	-6.744131319589453	-2.9333940346866463	3187020
3187151	ML	heuristics and h-optimum estimators in a model with type-i constraints	2014	-6.269086703831809	-2.98041705578169	3187178
3189395	Networks	on the performance of the poisson and the negative binomial ridge predictors	2018	-6.435003552667563	-3.0044750165335605	3189422
3189982	DB	adjusted empirical likelihood estimation of distribution function and quantile with nonignorable missing data	2018	-6.551447918182329	-3.0119197661457364	3190009
3190016	NLP	empirical likelihood for linear models with missing responses	2009	-6.509445307134925	-2.9206469204704195	3190043
3190284	AI	expectation maximization method for multivariate change point detection in presence of unknown and changing covariance	2014	-6.633060039567933	-2.5022375483920243	3190311
3190381	ML	on population-based simulation for static inference	2007	-6.6835640809291705	-2.8848417722690667	3190408
3195056	Metrics	on the estimation of the linear relation when the error variances are known	2007	-6.5585120903720115	-3.0777552747330965	3195083
3195457	ECom	the mcdonald gompertz distribution: properties and applications	2017	-6.737317365874487	-2.4884288173142037	3195484
3196408	ML	linking losses for density ratio and class-probability estimation	2016	-6.536666903552026	-2.456706242638738	3196435
3197181	HPC	bayesian analysis of some models that use the asymmetric exponential power distribution	2015	-6.628935733861687	-2.8455871503739734	3197208
3199213	ML	chessboard distributions and random vectors with specified marginals and covariance matrix	2002	-7.0041839606812	-2.9725234601663684	3199240
3199248	ML	adjusting the tests for skewness and kurtosis for distributional misspecifications	2017	-6.447588344759681	-2.7198307012061966	3199275
3201093	Robotics	bayesian evidence and model selection	2015	-6.293104706877108	-2.6192890855747577	3201120
3202453	DB	a gamma-normal series truncation approximation for computing the weibull renewal function	2008	-6.952937828874711	-2.272732997951461	3202480
3204210	ML	on two-stage monte carlo tests of composite hypotheses	2017	-6.638195448390597	-2.7168928602263964	3204237
3204672	AI	on a new nbue property in multivariate sense: an application	2011	-6.372682151959528	-2.6711949170713187	3204699
3205244	Theory	spatial modeling of rainfall accumulated over short periods of time	2018	-6.4295931583547175	-2.7974119084809046	3205271
3206485	Vision	kernel density estimation in adaptive tracking	2008	-6.845425989703534	-3.0119385587097036	3206512
3206728	ML	random weighting empirical distribution function and its applications to goodness-of-fit testing	2015	-6.538596265810544	-2.4021666781902598	3206755
3207395	ML	a revisit to testing the equality of several poisson parameters	2016	-6.497474549384661	-2.815009965256172	3207422
3207527	EDA	robust regression estimation in generalized linear models	2011	-6.817117284799858	-2.5933195900729067	3207554
3209538	AI	statistical estimation in varying coefficient models with surrogate data and validation sampling	2009	-6.488296574176713	-3.076075324626052	3209565
3210125	HCI	conditional parameter identification with asymmetrical losses of estimation errors	2012	-6.268806967328231	-2.4835387492403127	3210152
3210162	AI	generating inverse gaussian random variates by approximation	2009	-6.933776414494897	-2.2974138915031697	3210189
3210637	Crypto	local power of a cramér-von mises type test for parametric autoregressive models of order one	2008	-6.667516985852705	-2.7658287343039656	3210664
3211404	Robotics	correlation-induction techniques for fitting second-order metamodels in simulation experiments	1989	-6.360502367816888	-2.49426117712326	3211431
3212143	ML	using polynomial chaos to compute the influence of multiple random surfers in the pagerank model	2007	-6.666175237744138	-2.2872292082176973	3212170
3212858	ML	improved point and interval estimation for a beta regression model	2006	-6.6596667885715535	-3.034471905576269	3212885
3217186	ML	comparison of performances of plug-in spatial classification rules based on bayesian and ml estimators	2014	-6.662158484949223	-3.0186933696115674	3217213
3217238	ML	estimation for the parameters of generalized half-normal distribution based on progressive type-i interval censoring	2015	-6.695794135994394	-2.660592654231748	3217265
3217254	ML	on asymptotic description of a probabilistic change-point model for a two-state discrete markov process	2009	-6.688334225471394	-2.5981838607483287	3217281
3217796	ECom	a standardized normal-laplace mixture distribution fitted to symmetric implied volatility smiles	2016	-6.342642333996327	-2.647740068285237	3217823
3218471	ML	analytical plug-in method for kernel density estimator applied to genetic neutrality study	2008	-6.407364881243048	-2.7979937479346195	3218498
3218526	SE	efficient tests for one sample correlated binary data with applications	2014	-6.638106735948247	-2.513011215068837	3218553
3219822	DB	relationship between sensitivity indices defined by variance- and covariance-based methods	2017	-6.620274090390566	-2.9849487661095035	3219849
3222660	ML	the evaluation of evidence for exponentially distributed data	2007	-6.413123504224624	-2.8152824872054434	3222687
3222827	EDA	maximum-likelihood estimation for the two-dimensional discrete boolean model using cross-windowed observations	1996	-7.042597554391482	-2.7956767658818755	3222854
3224013	ML	on estimating causal effects based on supplemental variables	2014	-6.39970881258005	-3.0793558672738883	3224040
3224367	ML	on spline regression under gaussian subordination with long memory	2011	-7.016597789353522	-2.7462384495100944	3224394
3224793	ML	nonparametric estimation for a stochastic volatility model	2010	-6.7418548689669455	-2.9766897746657133	3224820
3225837	ML	yield optimization with correlated design parameters and non-symmetrical marginal distributions	2003	-6.573551771053148	-2.736906652526641	3225864
3226018	Vision	comparison of various estimators in simulated fgn	2007	-6.463664630903734	-2.6393282947340566	3226045
3228212	AI	statistical inference about the shape parameter of the burr type xii distribution under the failure-censored sampling plan	2005	-6.607275885527482	-2.2381714017943826	3228239
3228601	ML	a multivariate version of hoeffding's phi-square	2010	-6.690332516612044	-2.7754283394760475	3228628
3228893	Theory	bayesian analysis for outliers in survey sampling	2010	-6.417973597335313	-3.063046328544253	3228920
3229266	ECom	a global consistency result for the two-dimensional pareto distribution in the presence of misspecified inflation	2010	-6.742598165167288	-2.9375500807577684	3229293
3229357	ML	on local times, density estimation and supervised classification from functional data	2011	-6.417057154524696	-3.0466019643260838	3229384
3230270	DB	non-normal capability indices for the weibull and lognormal distributions	2016	-6.439853380051608	-2.301682964989872	3230297
3231184	SE	a multivariate uniformity test for the case of unknown support	2012	-6.577474295997452	-2.2769724121371264	3231211
3234974	ML	improved batching for confidence interval construction in steady-state simulation	1999	-6.874530643773862	-2.373910379443009	3235001
3235480	HCI	sequential design of computer experiments for the assessment of fetus exposure to electromagnetic fields	2016	-6.307932716193933	-3.0808859086948437	3235507
3236399	ML	confidence interval estimation of a common correlation coefficient	2008	-6.389607303934258	-2.861022827723891	3236426
3236618	Theory	a probabilistic proof of gauss' 2f1 identity	1994	-6.748446893755911	-2.4254620196286774	3236645
3238030	Theory	poisson processes with nearly constant failure intensity	1991	-6.4270328358512545	-2.740893843747828	3238057
3238156	ML	testing the convenience of a variate for stratification in estimating the gini-simpson diversity	1994	-6.492209006220162	-2.6994286273802803	3238183
3239107	AI	uncertainty importance measure for models with correlated normal variables	2013	-6.305779934592739	-2.3700376696646557	3239134
3240592	Vision	on cumulative process model and its statistical analysis	2000	-6.4272884934631085	-2.141316278808948	3240619
3243462	EDA	model selection and estimation for lognormal sums in pearson's framework	2006	-6.791050303780946	-2.4448584027887	3243489
3244083	ML	fast bayesian parameter estimation for stochastic logistic growth models	2014	-7.1662486161189065	-2.9556120586589216	3244110
3244762	Logic	maximal coupling of empirical copulas for discrete vectors	2015	-7.006754933053008	-2.507270601255024	3244789
3245917	Theory	probability distributions conditioned by the available information: gamma distribution and moments	2006	-6.786318634892676	-2.2657207006210114	3245944
3246897	Comp.	a unifying computational method for the analysis of complete factorial experiments	1967	-6.886015050917875	-2.2329184490596634	3246924
3248671	ML	improved gmm estimation of panel var models	2016	-6.327530299394849	-2.9454009902634355	3248698
3248707	AI	model based on skew normal distribution for square contingency tables with ordinal categories	2014	-6.6474209040230425	-2.313772295296914	3248734
3249835	NLP	confidence intervals for the ratio of coefficients of variation of the gamma distributions	2015	-6.3540787299006265	-2.497938232924911	3249862
3250185	AI	assessing the performance of normal-based and reml-based confidence intervals for the intraclass correlation coefficient	2011	-6.592644713997159	-2.739960863195664	3250212
3252309	DB	a randomized response model for estimating a rare sensitive attribute in stratified sampling using poisson distribution	2015	-6.290293306166217	-2.5519885359061063	3252336
3252583	Theory	a goodness-of-fit test for archimedean copula models in the presence of right censoring	2010	-6.270649784519043	-2.4523583463680225	3252610
3254192	ML	comparison of additive and multiplicative bayesian models for longitudinal count data with overdispersion parameters: a simulation study	2015	-6.344937133305009	-3.0798381634871403	3254219
3254316	ML	fractal characterizations of max statistical distribution in genetic association studies	2009	-6.519404539157795	-2.7261372424912014	3254343
3254432	Logic	numerical computation of p-values with myfitter	2013	-6.859758905595987	-2.5476746265274994	3254459
3257691	ML	a monte carlo method for high-dimensional volume estimation and application to polytopes	2011	-7.076050282527606	-2.349568930933151	3257718
3258181	AI	mixture distributions based methods of calibration for the empirical log-likelihood ratio	2007	-6.7610777292370825	-3.0534364603868966	3258208
3260514	ML	fourier methods for testing multivariate independence	2008	-6.663982875610687	-2.735909817049715	3260541
3263153	ML	linear bayes estimator for the two-parameter exponential family under type ii censoring	2014	-6.7858711037020685	-3.059987686528105	3263180
3264618	ML	on confidence bounds for one-parameter exponential families	2017	-6.751691634175272	-2.4695821368219137	3264645
3265975	AI	anova extensions for mixed discrete and continuous data	2008	-6.430121860505594	-2.9235073273332906	3266002
3266633	ML	exploratory factor analysis - parameter estimation and scores prediction with high-dimensional data	2016	-6.558222641321912	-2.944623108716432	3266660
3268022	ML	new frontiers in input modeling: nonparametric estimation of nonhomogeneous poisson processes using wavelets	2000	-6.5958693412574645	-2.4379667010179293	3268049
3271590	ML	testing serial correlation in single index models	2015	-6.473605225358955	-2.9207233077562718	3271617
3273132	ML	discussion on the paper by friedman and fisher	1999	-6.505486595091692	-2.5096382444799383	3273159
3273558	ML	maximum likelihood estimation for conditional distribution single-index models under censoring	2013	-6.2637711470207424	-3.0324979421836717	3273585
3274571	ML	measures of statistical dispersion based on shannon and fisher information concepts	2013	-6.471840300005972	-2.4094763562920605	3274598
3277555	DB	bayesian reliability estimation of a 1-out-of-k load-sharing system model	2014	-6.6036023038473175	-2.3292631868200604	3277582
3278462	ML	generalized method of moments for stochastic reaction networks in equilibrium	2016	-6.99950956858921	-2.7003544124159813	3278489
3278893	AI	on birnbaum-saunders inference	2008	-6.358806650632112	-2.9794055899169622	3278920
3280972	ML	zero-inflated poisson regression mixture model	2014	-6.270960494813293	-3.00456446584083	3280999
3282790	ML	conditional quantiles and tail dependence	2015	-6.68249719503946	-2.463510971779284	3282817
3282946	AI	sequential monitoring for change in scale	2008	-6.538288342921513	-2.158611985059765	3282973
3286471	ML	nse: computation of numerical standard errors in r	2017	-6.4990872879889	-2.6858204718344627	3286498
3286686	Logic	multivariate versions of bartlett's formula	2012	-6.685599068584534	-2.9014089959247085	3286713
3288980	ML	bayesian approach for the reliability parameter of power lindley distribution	2016	-6.645571376527719	-2.7000129871783503	3289007
3291018	DB	modeling discrete bivariate data with applications to failure and count data	2017	-6.784840431952675	-2.309083389412804	3291045
3291310	Robotics	a note on anova in an experimental design model based on an orthonormal system	2012	-6.378015461278751	-2.771990772756835	3291337
3292864	ML	an exact confidence set for two binomial proportions and exact unconditional confidence intervals for the difference and ratio of proportions	2008	-6.627705506373827	-2.5786339519095263	3292891
3293291	ML	estimating negative variance components from gaussian and non-gaussian data: a mixed models approach	2011	-6.33147045786586	-3.0665850556683165	3293318
3295106	Metrics	the initial transient in steady state simulation (panel discussion)	1981	-6.277263101007535	-2.2013064229549104	3295133
3298738	ML	bayesian estimation for the exponentiated weibull model via markov chain monte carlo simulation	2011	-6.586827942364285	-2.543150501714696	3298765
3300090	ML	the volatility structure of the fixed income market under the hjm framework: a nonlinear filtering approach	2009	-6.486436027052845	-2.754437626055349	3300117
3300740	ECom	new results for computing blaker's exact confidence interval for one parameter discrete distributions	2016	-6.99234646418459	-2.162134960158975	3300767
3300795	ML	a monte carlo evaluation of three methods to detect local dependence in binary data latent class models	2013	-6.4131672837269935	-3.020684429838178	3300822
3302788	ML	ratio method to the mean estimation using coefficient of skewness of auxiliary variable	2010	-6.718503564539375	-3.053356514357393	3302815
3305822	ML	error estimation properties of gaussian process models in stochastic simulations	2013	-6.631705328837473	-2.6490052195244007	3305849
3305873	ML	on the exact and approximate distributions of the product of a wishart matrix with a normal vector	2013	-7.115361548514622	-2.3605936302164237	3305900
3306942	Crypto	testing inference in heteroskedastic fixed effects models	2014	-6.527297630154081	-3.0133806287240805	3306969
3307854	ML	asymptotic distributions for quasi-efficient estimators in echelon varma models	2014	-6.963834847208275	-2.8863534821860664	3307881
3308373	ML	simulation input modeling: a kernel approach to estimating the density of a conditional expectation	2003	-6.567693476648081	-2.9533460479541502	3308400
3310439	ML	latent profile analysis with nonnormal mixtures: a monte carlo examination of model selection using fit indices	2016	-6.349359014358808	-3.014605681085688	3310466
3310738	Theory	overlapping variance estimators for simulation	2007	-6.6728832335059645	-2.3011451534354097	3310765
3312341	ML	a note on iterative marginal optimization: a simple algorithm for maximum rank correlation estimation	2007	-6.631549398577378	-2.90906897216758	3312368
3314494	ML	estimating the entropy of a weibull distribution under generalized progressive hybrid censoring	2015	-6.5407198321434095	-2.306216612479693	3314521
3317312	ML	reliability inference for a copula-based series system life test under multiple type-i censoring	2016	-6.45141974176126	-2.234990069205485	3317339
3318798	DB	metamodels for estimating quantiles of systems with one controllable parameter	2009	-6.499292766933872	-2.2412077490462123	3318825
3320916	Robotics	robustness of non-homogeneous gamma process-based software reliability models	2015	-6.428412302967372	-2.336908877882188	3320943
3321125	ML	confidence intervals for reliability and quantile functions with application to nasa space flight data	2006	-6.5347972078583165	-2.2763684076376225	3321152
3321662	ML	a constraint on extensible quadrature rules	2016	-6.7589198191855395	-2.2141476041909103	3321689
3323492	Metrics	asymptotic distribution of two-sample empirical u-quantiles with applications to robust tests for shifts in location	2012	-6.678419265678488	-3.0592745528965244	3323519
3323660	Robotics	a new generalized odd log-logistic flexible weibull regression model with applications in repairable systems	2018	-6.363268867207283	-2.2936050430669224	3323687
3325357	ML	mean vector testing for high-dimensional dependent observations	2017	-6.784822624115767	-2.897454259241552	3325384
3326026	ML	a bivariate count model with discrete weibull margins	2019	-6.282871339663902	-2.7095086996931768	3326053
3327477	ML	2nd special issue on matrix computations and statistics	2006	-6.981692754266096	-2.8203431780577435	3327504
3330173	Vision	the distribution of the spectrum for the discrete fourier transform test included in sp800-22	2005	-6.751092610043501	-2.4894700078085115	3330200
3334048	ML	inference for three-parameter 푴-wright distributions with applications	2017	-6.804288063402548	-3.004088149093949	3334075
3337456	ML	strong consistency of the distribution estimator in the nonlinear autoregressive time series	2015	-6.365261715440772	-2.8022078743894143	3337483
3337760	ECom	bayesian statistical inference for weighted exponential distribution	2014	-6.584407979633582	-2.5158285928725808	3337787
3338460	ML	asymptotics of the two-stage spatial sign correlation	2016	-6.821116457438013	-2.7940055808362794	3338487
3338715	ML	regression metamodeling in simulation using bayesian methods	1999	-6.652766118174652	-2.4788786979538453	3338742
3340045	Theory	some properties of the pivotal statistic based on the asymptotically distribution-free theory in structural equation modeling	2008	-6.559796739468976	-2.8926496495840164	3340072
3340800	EDA	a mean extrapolation technique for high reliability analysis	2013	-6.655684094024288	-2.550262626612565	3340827
3341266	Robotics	enhanced coregionalization analysis for simulating vector gaussian random fields	2012	-6.9913187674258985	-2.630105762377392	3341293
3343002	Crypto	estimating a population median with a small sample	2009	-6.57586655988863	-2.87978480532468	3343029
3345523	Vision	on mixture densities in importance sampling	1994	-6.944719075209084	-3.0440416925240545	3345550
3346522	ML	nonparametric estimation of küllback-leibler divergence	2014	-6.914071521857312	-2.636386792500186	3346549
3347409	EDA	a characterization of power method transformations through the method of percentiles	2018	-7.007916294549326	-2.8934360100327203	3347436
3349197	ML	a statistical analysis of the delogne-kåsa method for fitting circles	2006	-7.070436739347462	-2.6619497167448283	3349224
3349292	SE	the generalization of latin hypercube sampling	2016	-6.754731341746676	-2.2214140837710223	3349319
3350353	ML	exact confidence limits for the acceleration factor under constant-stress partially accelerated life tests with type-i censoring	2018	-6.494037180603843	-2.1926656994535314	3350380
3352665	ML	fitting a distribution to data using an alternative to moments	1979	-6.602909943896531	-2.713588636317602	3352692
3352702	Metrics	simultaneous confidence intervals for the mean of multivariate poisson distribution: a comparison	2007	-6.4716759317485115	-2.9131346567761573	3352729
3352735	ECom	a non-gaussian multivariate distribution with all lower-dimensional gaussians and related families	2014	-6.9662277240047805	-2.9007172856940566	3352762
3353157	ML	a class of estimators of population mean using auxiliary information in the presence of non-response	2008	-6.575512602954506	-2.8228069981489132	3353184
3355142	ML	oscillation of metropolis-hastings and simulated annealing algorithms around lasso estimator	2017	-6.646124823451784	-2.9295344186756545	3355169
3356125	AI	an alternative computational algorithm for calculating the nonlinearity of regression models with two parameters	2007	-6.636869039796213	-2.2879369390306943	3356152
3358578	ML	adjusted wilcoxon signed rank test tables for ratio of percentiles	2017	-6.450238706072388	-2.5801329540185862	3358605
3361756	Visualization	mathematically modelling hcg in women with gestational trophoblastic disease using logarithmic transformations	2016	-6.345428838639458	-2.313311604840424	3361783
3362048	ML	estimation of pr(y < x) for the two-parameter generalized exponential records	2017	-6.4789322795316275	-2.5484610393066047	3362075
3363598	ML	percentage points for testing homogeneity of several univariate gaussian populations	2004	-6.563772096048759	-2.7007927690488174	3363625
3364199	ML	simulation-based bayesian estimation of an affine term structure model	2005	-6.528121059607633	-3.090086763914312	3364226
3364493	ML	on importance sampling in the problem of global optimization	2009	-6.747344319035869	-2.5658710409602867	3364520
3365108	Theory	some procedures for function approximation based on the use of sample data and their application in heuristic methods for solving practical problems	1979	-7.092706751518545	-2.5240164748776164	3365135
3366470	ML	vectors of two-parameter poisson-dirichlet processes	2011	-6.57669117350263	-2.9860974888284733	3366497
3367532	ML	estimation of constant-stress accelerated life test for weibull distribution with nonconstant shape parameter	2018	-6.531382914432191	-2.5150220317140497	3367559
3368665	ML	logistic parameters estimation using simple random sampling and ranked set sampling data	2004	-6.441708623069553	-2.6709977782922776	3368692
3369899	Metrics	an improved estimator of the finite population mean in simple random sampling	2011	-6.564188127949816	-2.7896244952139795	3369926
3370410	ML	skew-heavy-tailed degradation models: an application to train wheel degradation	2018	-6.2932534936862465	-2.3834855838154554	3370437
3370721	ML	a* sampling	2014	-6.665425486985117	-2.438471342470628	3370748
3371373	AI	on progressively censored competing risks data for weibull distributions	2009	-6.277644795048407	-2.550166689229785	3371400
3372721	ML	a quick procedure for model selection in the case of mixture of normal densities	2007	-6.644464152005082	-3.082189215064256	3372748
3374630	Theory	expected sample moments of concomitants of selected order statistics	2005	-6.835051224212222	-2.319084895021491	3374657
3375867	Theory	"""reply to the comment by o. arslan on """"information matrices for laplace and pareto mixtures"""""""	2007	-6.764750044332565	-2.2223750723058093	3375894
3378250	ML	bayesian estimation of the parameters of bivariate exponential distributions	2009	-6.733225753876293	-2.819056750801696	3378277
3379275	EDA	a study of two estimation approaches for parameters of weibull distribution based on wpp	2007	-6.359923300387233	-3.0098969689778867	3379302
3379818	ML	evaluation of the artafit method for fitting time-series input processes for simulation	2008	-6.271951757375575	-2.4048256440382336	3379845
3380222	ECom	smoothing complements and randomized score functions	1992	-6.899875270179595	-2.9554055065767497	3380249
3383724	Robotics	unbiased τ-leap methods for stochastic simulation of biochemical systems	2008	-7.225566975720907	-2.669357279075793	3383751
3383735	Robotics	robust statistical process control in block-rdt framework	2015	-6.506925307346103	-2.901262960185816	3383762
3385045	SE	on the covariance of the asymptotic empirical copula process	2010	-6.552773973740499	-2.957054141216418	3385072
3386065	ML	archimedean copula and contagion modeling in epidemiology	2013	-6.5879687142910965	-2.321785502548862	3386092
3386651	Vision	stochastic interpretation of universal portfolio and generalized target classes	2011	-7.009463472036624	-2.920710334154	3386678
3387777	Robotics	a study of estimation for the three-parameter weibull distribution based on doubly type-ii censored data using a least squares method	2008	-6.539903666686636	-2.942966570905075	3387804
3390021	NLP	three tree priors and five datasets: a study of the effect of tree priors in indo-european phylogenetics	2018	-6.390744697863562	-3.053923647724336	3390048
3390261	Theory	fisher information for the elliptically symmetric pearson distributions	2006	-6.817095571629739	-2.515321647767273	3390288
3391466	Theory	tests for cointegration rank and choice of the alternative	2009	-6.377481424207432	-2.7458799532333384	3391493
3393743	Logic	test of independence for functional data	2013	-6.5766121931790265	-2.9444502397784387	3393770
3396663	HCI	comparison of operating characteristics of commonly used sample size re-estimation procedures in a two-stage design	2013	-6.440247902214268	-2.501334163599666	3396690
3397424	Vision	locally best unbiased estimation of the correlation coefficient in a bivariate normal population (corresp.)	1973	-6.354073679708028	-2.6611783812765752	3397451
3397871	Embedded	on finite sample theory for autoregressive model order selection	1993	-6.912356837635867	-2.8364888480423787	3397898
3398325	ML	preface to special issue on high-dimensional dependence and copulas	2015	-6.913051456358513	-2.474481168346101	3398352
3403065	ML	a new class of distribution functions for lifetime data	2014	-6.4281616208218555	-2.189450470289023	3403092
3404359	ML	sieve bootstrap t-tests on long-run average parameters	2008	-6.277001699388857	-2.5394563312564378	3404386
3404602	HCI	bayesian estimation of life parameters in the weibull distribution	1973	-6.74139240297067	-2.619987200505077	3404629
3406005	DB	effect of outliers on the gfi quality adjustment index in structural equation model and proposal of alternative indices	2017	-6.339997604410066	-3.0175909900922595	3406032
3406497	ML	performing quantiles in regression sampling strategy	2009	-6.319196908901483	-2.9806101389188995	3406524
3407057	ML	bivariate linear mixed models using sas proc mixed.	2002	-6.3658743090559735	-3.0922250757925713	3407084
3408728	ML	optimal reparametrization and large sample likelihood inference for the location-scale skew-normal model	2012	-6.911822186816839	-2.9288267982388367	3408755
3408948	EDA	white noise assumption srevisited: regression meta models and experimental designs in practice	2006	-6.455303645563662	-2.96060842077431	3408975
3408980	AI	a revisit to correlation analysis for distortion measurement error data	2014	-6.287405541786362	-3.0658670899070586	3409007
3409162	Comp.	confidence intervals for quantiles using generalized lambda distributions	2009	-6.680473442081269	-2.636958792543848	3409189
3409619	ML	optimization and stability theory for economic analysis (brian beavis and ian dobbs)	1991	-6.830427706288933	-2.6016816313666262	3409646
3409872	Metrics	statistical evidence measured on a properly calibrated scale for multinomial hypothesis comparisons	2016	-6.635613701754652	-2.9419940568296337	3409899
3409948	ML	symmetries of random discrete copulas	2008	-6.638418051591301	-2.504207547264913	3409975
3411357	Metrics	variance reduction in the simulation of call centers	2006	-6.435146156606737	-2.2954418976352597	3411384
3414008	ML	semiparametric inference for transformation models via empirical likelihood	2010	-6.556196866764755	-2.8920961025385856	3414035
3414122	ML	a modified kolmogorov-smirnov test for normality	2010	-6.4107170734709955	-2.7615100107365125	3414149
3415058	ML	distribution-free statistical inference for generalized lorenz dominance based on grouped data	2004	-6.556505047905603	-2.139548504627392	3415085
3415992	ML	sample size methods for constructing confidence intervals for the intra-class correlation coefficient	2015	-6.479371681613769	-2.7269889355058785	3416019
3417474	ML	on bartlett's test for correlation between time series	1998	-6.59221995553246	-2.6527163133049254	3417501
3417849	ML	functional analysis for parametric families of functional data	2012	-6.494480975899759	-2.6991824222097702	3417876
3418658	SE	a finite mixture approach to univariate data simulation with moment matching	2017	-6.493479787287754	-3.0419954690646063	3418685
3419624	Graphics	fast generation of order statistics	2002	-7.005569749504068	-2.1591106722280697	3419651
3420176	Theory	a bayesian analysis of record statistics from the gompertz model	2003	-6.538194834702831	-2.6761599596225096	3420203
3420651	ML	transmuted gamma-mixed rayleigh distribution: properties and estimation with bladder cancer data example	2016	-6.888626232947006	-2.4032148151332002	3420678
3421342	Visualization	goodness-of-fit test based on kullback-leibler information for progressively type-ii censored data	2011	-6.597617176852497	-2.355182225851033	3421369
3425256	Robotics	computational measurements of the transient time and of the sampling distance that enables statistical independence in the logistic map	2009	-6.794477405851982	-2.4820346808862226	3425283
3425450	AI	approximate confidence interval for standard deviation of nonnormal distributions	2006	-6.3753492512740415	-2.6694089445070084	3425477
3426637	HPC	selecting an adaptive sequence for computing recursive m-estimators in multivariate linear regression models	2013	-6.810691856401638	-3.0918737547197526	3426664
3427193	AI	the distribution of the discrepancy of scrambled digital (t, m, s)-nets	2003	-6.939768561798637	-2.392650590885224	3427220
3428797	Robotics	optimal designs for estimating the control values in multi-univariate regression models	2010	-6.418594527524787	-3.0651388461793663	3428824
3430527	AI	on pearson-kotz dirichlet distributions	2011	-6.8654843025771255	-2.5191338987624534	3430554
3430531	ML	windows associated with parametric spectral estimators	1982	-6.914334542801789	-2.9507654085375483	3430558
3432244	Embedded	exact nonparametric inference for component and system lifetime distributions based on joint signatures	2016	-6.284889271797995	-2.1374969750489248	3432271
3432306	DB	statistical independence of multi-variables from the viewpoint of linear algebra	2008	-7.206454902530003	-2.3755813627994207	3432333
3432605	ECom	weighting lower and upper ranks simultaneously through rank-order correlation coefficients	2018	-6.319276732967207	-2.267041258205724	3432632
3432651	Theory	on weighted randomly trimmed means	2007	-6.7084992424311904	-3.0009292580671008	3432678
3433367	AI	importance sampling for the simulation of reinsurance losses	2013	-6.447531886233098	-2.144484045437793	3433394
3433393	ML	edgeworth expansions for gel estimators	2012	-6.821916981984358	-2.685313603240162	3433420
3433838	Theory	on some aspects of a generalized alternative zero-inflated logarithmic series distribution	2017	-6.5006150616799205	-2.62719919479983	3433865
3434736	Theory	the compound class of extended weibull power series distributions	2013	-6.807972563679577	-2.3065891485897745	3434763
3434932	AI	a nonparametric test for the ordered alternative based on kendall's correlation coefficient	2008	-6.516648652733813	-2.421626869364998	3434959
3436394	ML	latent class model diagnostics - a review and some proposals	2003	-6.3744279805814195	-3.0437071261135284	3436421
3439407	DB	ratio estimators for the finite population mean under simple random sampling and rank set sampling	2017	-6.567910914096387	-2.674528318791229	3439434
3439569	Metrics	combining antithetic variates and control variates in simulation experiments	1996	-6.541064036621487	-2.310865741148252	3439596
3442259	AI	"""a filter for """"confidence interval p-values"""""""	2007	-6.831772704020415	-2.6324414778644907	3442286
3442646	ML	point process modeling for directed interaction networks	2010	-6.715214423868598	-2.445648483559999	3442673
3446495	ECom	inference of stress-strength for the type-ii generalized logistic distribution under progressively type-ii censored samples	2018	-6.642954204297999	-2.5537715872550164	3446522
3447222	SE	an introduction to log-linear analysis and implementing the newton-raphson algorithm in apl2	1993	-6.494195064931373	-2.902901757692298	3447249
3449491	Theory	extremes of scale mixtures of multivariate time series	2015	-6.738114563752172	-2.680081441207992	3449518
3451225	Robotics	a criterion for optimality of design of evop-type experiments - ii. modified criterion for non-quadratic response surfaces	1978	-6.8254172002073314	-3.0095413917822573	3451252
3454544	ECom	two moments of the logitnormal distribution	2008	-6.2677835128937875	-2.745794172735021	3454571
3457574	NLP	estimation of entropy using random sampling	2014	-6.640279740840369	-2.667935747404874	3457601
3458706	ML	pearson-fisher chi-square statistic revisited	2011	-6.368759801970249	-2.7505024231994586	3458733
3461142	Theory	independence tests for continuous random variables based on the longest increasing subsequence	2014	-6.799999763500607	-2.7816160343577163	3461169
3461516	ECom	robust bayesian estimation of a two-parameter exponential distribution under generalized type-i progressive hybrid censoring	2017	-6.5455307520817	-2.558510976364192	3461543
3462510	ML	comparison of a large number of regression curves	2017	-6.880046978597453	-2.6263309967090964	3462537
3463253	AI	simplifying the calculation of the p-value for barnard's test and its derivatives	1997	-6.682689533956723	-2.4219144105543635	3463280
3463339	Visualization	a wavelet based likelihood ratio test for the homogeneity of poisson processes	2016	-6.969722347153537	-2.7073503805024672	3463366
3463529	DB	message oriented programming - the case for first class messages	2004	-6.537155705233404	-2.5358371506996384	3463556
3463953	ML	goodness-of-fit tests for the pareto distribution based on its characterization	2016	-6.829626189319137	-2.698972074197536	3463980
3464594	ML	a sum-product algorithm with polynomials for computing exact derivatives of the likelihood in bayesian networks	2018	-6.9585762035350625	-2.842950670672749	3464621
3466005	Metrics	robust poisson likelihood estimation for frailty cox models: a simulation study	2017	-6.26884602438909	-2.9462213972716813	3466032
3466832	NLP	a link between complete models with stochastic volatility and arch models	2004	-6.477882771527772	-2.4498290367391187	3466859
3467386	Robotics	a new unbiased stochastic derivative estimator for discontinuous sample performances with structural parameters	2018	-6.687503402811184	-2.3323406414680736	3467413
3467836	ML	single-index copulas	2018	-6.676117455157711	-3.0453962980412457	3467863
3472581	Logic	markov models for identification of significant episodes	2005	-6.8291530187715175	-2.404203909766455	3472608
3474847	ECom	batch variance estimators for the median of simulation output	1998	-6.700253571129839	-2.5289573605010616	3474874
3476175	ML	'truncate, replicate, sample': a method for creating integer weights for spatial microsimulation	2013	-6.400283764631935	-2.7944762091635145	3476202
3477730	ECom	bootstrap-based inferential improvements in beta autoregressive moving average model	2018	-6.271885060088098	-3.068071957508669	3477757
3478262	DB	combinatorial em algorithms	2014	-7.012264963903947	-2.3864498543075547	3478289
3479143	ML	multivariate models and variability intervals: a local random set approach	2011	-6.335599852035357	-2.14179594991454	3479170
3481309	ML	simultaneous confidence bands for a percentile hyper-plane with covariates constrained in a restricted range	2018	-6.7047130655082725	-2.3299138603365233	3481336
3482631	Theory	inference for accelerated competing failure models from weibull distribution under type-i progressive hybrid censoring	2014	-6.472283129809786	-2.2113312297839087	3482658
3483734	Theory	the generalized modified weibull power series distribution: theory and applications	2016	-6.805852346440978	-2.2516070113013034	3483761
3484730	ML	new error bounds for solomonoff prediction	2001	-6.403729418682598	-2.1808081419884897	3484757
3485935	Theory	on partitioning conditional independence model for three-way contingency tables	2011	-6.8982210007562985	-2.3869857442428453	3485962
3487662	Robotics	combined flat histogram monte carlo method for efficient simulation of communication systems	2012	-7.12845924624246	-2.930040722603842	3487689
3489302	ECom	a new estimator for a population proportion using group testing	2016	-6.421768893592759	-2.6843503894008096	3489329
3489822	AI	computer generation of negative binomial variates by envelope rejection	2008	-6.574847212689337	-2.4342565137171	3489849
3490549	Web+IR	resampling methods for particle filtering: identical distribution, a new method, and comparable study	2015	-6.399920308574675	-2.9595370083918358	3490576
3490675	Theory	cone distribution functions and quantiles for multivariate random variables	2018	-6.810505149258917	-2.4507336277692024	3490702
3493244	ML	estimating the number of true null hypotheses in multiple hypothesis testing	2014	-6.557351065447531	-2.6705185715097386	3493271
3496222	ML	distribution of the lambda-criterion for sphericity test and its connection to a generalized dirichlet model	2008	-6.776171218036303	-2.6730446813504143	3496249
3499458	ML	inference on the shape of elliptical distributions based on the mcd	2014	-6.766787319445503	-2.949784394239769	3499485
3500537	Theory	a family of composite discrete bivariate distributions with uniform marginals for simulating realistic and challenging optimization-problem instances	2015	-7.0290430639102235	-2.23808476899043	3500564
3505575	ML	a class of inference procedures for validating the generalized koziol-green model with recurrent events	2013	-6.335086879642272	-2.681394714780941	3505602
3506346	ML	estimation of a discriminant function based on small sample size from a mixture of two gumbel distributions	2010	-6.4925003759030355	-3.059765278524143	3506373
3508106	Visualization	order statistics in goodness-of-fit testing	2001	-6.570286686758138	-2.718102923982176	3508133
3508289	Theory	"""comment on """"information matrices for laplace and pareto mixtures"""" by s. nadarajah"""	2007	-6.5798169624991125	-2.384478412635469	3508316
3508729	Visualization	an enhanced lognormal selection procedure	2011	-6.451455072475758	-2.2486213524714045	3508756
3509401	Theory	a new family of marshall-olkin extended generalized linear exponential distribution	2016	-6.674236403878586	-2.3609919299877853	3509428
3511112	ML	rca models with garch innovations	2009	-6.289935499707526	-2.4971980215671468	3511139
3512307	Logic	prequential omnibus goodness-of-fit tests for stochastic processes: a numerical study	2018	-6.442925080640705	-2.6784917568335023	3512334
3512502	EDA	an inference methodology for life tests with complete samples or type-ii right censoring	2009	-6.626882793452379	-2.409974960229727	3512529
3512760	Vision	multivariate divergences with application in multisample density ratio models	2015	-7.038613273032532	-2.802764392813534	3512787
3514312	EDA	simulation studies of efficiency, returns to scale and misspecification with nonlinear functions in dea	1996	-6.385995342063392	-2.9544990154843305	3514339
3515652	Theory	computational issues of generalized fiducial inference	2014	-6.699478346524347	-2.988838833739827	3515679
3516352	Theory	integral evaluation using the δ2-distribution. simulation and illustration	2007	-6.732212075945348	-2.6687420474300003	3516379
3516644	ML	renyi's entropy as an index of diversity in simple-stage cluster sampling	1998	-6.956220115991863	-2.163426855383212	3516671
3517352	ML	ratio tests for persistence change with heavy tailed observations	2014	-6.588855789648041	-2.7570735337933683	3517379
3518902	Visualization	a separated splitting technique for disconnected rare event sets	2014	-6.942130618686547	-2.7733406408544656	3518929
3519246	ML	heuristic confidence intervals for the gamma test	2006	-6.734013580648581	-2.3485159821954147	3519273
3521300	AI	bayes estimation and expected termination time for the competing risks model from gompertz distribution under progressively hybrid censoring with binomial removals	2016	-6.4475089735520745	-2.352133735716309	3521327
3522192	ML	testing the equality of several covariance matrices with fewer observations than the dimension	2010	-6.602936756862849	-2.986466868920694	3522219
3523474	ML	subsampling extremes: from block maxima to smooth tail estimation	2014	-7.000296473612118	-2.5981957938340305	3523501
3524562	ML	an em algorithm for the model fitting of markovian binary trees	2014	-6.747071844901222	-2.8424694577154166	3524589
3524657	Web+IR	a flexible method for estimating inverse distribution functions in simulation experiments	1994	-6.866483997296263	-2.534960814413446	3524684
3524934	AI	random logic programs: linear model	2015	-6.8137347998007955	-2.744074065650315	3524961
3525348	Arch	variance and bias of the normalized relay correlation estimator	1985	-6.461106974351782	-2.296685647024625	3525375
3528003	Theory	exact bahadur slope for combining independent tests for normal and logistic distributions	2003	-6.390383821718982	-2.757569326912179	3528030
3529328	Logic	gaussian approximation of conditional elliptical copulas	2012	-6.933014672811521	-2.670441446213537	3529355
3529463	Vision	estimating bernoulli trial probability from a small sample	2011	-6.5185171923750485	-2.319297319452339	3529490
3531695	NLP	a simulation study to investigate the accuracy of approximating averages of ratios using ratios of averages	2013	-6.4621881752410815	-2.464998064954709	3531722
3535426	ML	computation of gaussian orthant probabilities in high dimension	2016	-6.915650351006981	-2.8823648207650963	3535453
3537988	ML	on the estimation of pareto fronts from the point of view of copula theory	2015	-6.3286994825411425	-2.343023008296366	3538015
3540384	ML	bayesian inference and life testing plan for the weibull distribution in presence of progressive censoring	2008	-6.572541042805233	-2.627428577854242	3540411
3541869	ML	semiparametric estimation in perturbed long memory series	2006	-6.330626184122872	-2.760952027013576	3541896
3547813	ML	a novel method for testing normality in a mixed model of a nested classification	2006	-6.702529997876946	-2.961376803517835	3547840
3547816	Theory	recent asymptotic results in testing for mixtures	2007	-7.0052002151146535	-2.6637574754492737	3547843
3548557	AI	a note on confidence interval estimation for a linear function of binomial proportions	2009	-6.492210978574049	-2.609259727868608	3548584
3549370	ML	computer implementation of multiple comparisons with the best and selection procedures	1983	-6.523583308114373	-2.22751780980047	3549397
3549586	ECom	a new method for estimating parameters of a skewed alpha-stable distribution	2000	-6.969534484109397	-2.4620199365737747	3549613
3549732	ML	cumulative mean bounds for quality control analysis	2015	-6.353402215732216	-2.1396830913143616	3549759
3551080	ML	stability of approximations of average run length of risk-adjusted cusum schemes using the markov approach: comparing two methods of calculating transition probabilities	2007	-6.5732004215967095	-2.3219352621775604	3551107
3551620	ML	singular inverse wishart distribution and its application to portfolio theory	2016	-6.875660033365213	-2.7005679084741185	3551647
3556512	ML	a new method for evaluation of the fisher information matrix for discrete mixed effect models using monte carlo sampling and adaptive gaussian quadrature	2017	-6.508432097077992	-3.016226574725158	3556539
3557179	ML	new inference for constant-stress accelerated life tests with weibull distribution and progressively type-ii censoring	2014	-6.3896436061870485	-2.2018107665178905	3557206
3559061	ML	an anova test for parameter estimability using data cloning with application to statistical inference for dynamic systems	2014	-6.317845554009643	-2.7074498367228035	3559088
3560721	EDA	problems of yield gradient estimation for truncated probability density functions	1986	-6.897349610396511	-3.050144692633744	3560748
3560917	Comp.	sample size determination for comparing two poisson rates with underreported counts	2007	-6.569499161286902	-2.6212582848590213	3560944
3561943	ML	rare-event probability estimation with conditional monte carlo	2011	-6.753432655877629	-2.245873601597814	3561970
3561960	Visualization	"""comments on """"statistical distribution of the measure of coherence"""	2006	-6.512438763045756	-2.364786492740948	3561987
3564283	ML	decision making with side information and unbounded loss functions	2006	-6.987800946792776	-2.4963827334298605	3564310
3565867	Metrics	generalized fiducial inference for accelerated life tests with weibull distribution and progressively type-ii censoring	2016	-6.288965269065133	-2.165900241452627	3565894
3566602	ML	likelihood-based and bayesian methods for tweedie compound poisson linear mixed models	2013	-6.7130350294081	-2.7598492998852038	3566629
3566844	AI	a matching algorithm for generation of statistically dependent random variables with arbitrary marginals	2009	-6.476804094985328	-2.488770661880938	3566871
3567138	ECom	testing the equality of quantiles for several normal populations	2018	-6.483828908088449	-2.8480587088255214	3567165
3569216	ML	beyond moments: extending the maximum entropy principle to feature distribution constraints	2018	-6.719514792041278	-2.8003985535700333	3569243
3569527	ML	tests for multiple outliers in an exponential sample	2014	-6.667540379132798	-2.543828722808129	3569554
3571641	EDA	adaptive designs with arbitrary dependence structure based on fisher's combination test	2015	-6.278235547365696	-2.963493010243732	3571668
3572943	ML	efficient and accurate approximate bayesian inference with an application to insurance data	2008	-6.662087078657588	-2.7521650412316125	3572970
3573613	ECom	t-optimal discriminating designs for fourier regression models	2017	-6.613486079353094	-3.0549412355249106	3573640
3574378	HPC	monte carlo algorithms for computing α-permanents	2016	-7.068495819097358	-2.4402878108335293	3574405
3574948	AI	nonparametric rank-based tests of bivariate extreme-value dependence	2010	-6.686927288702866	-2.7012881087427627	3574975
3575573	ML	on the identifiability of mixtures-of-experts	1999	-6.683226607069495	-3.0860431827468915	3575600
3575735	Logic	a new test of independence for bivariate observations	2017	-6.462280577539523	-2.7949475064490192	3575762
3576039	ML	overlapping variance estimators for simulations	2004	-6.405377022402215	-2.5517605686806584	3576066
3579157	AI	choosing an optimal model for failure data analysis by graphical approach	2013	-6.356759996682082	-2.213624866569305	3579184
3579482	ML	an empirical bayes test of parameters for a nonexponential distribution family with negative quadrant dependent random samples	2013	-6.901815354304378	-2.674371499326909	3579509
3580831	ML	a two-sample empirical likelihood ratio test based on samples entropy	2011	-6.5881593737882005	-2.9538976936735657	3580858
3583474	AI	a general class of estimators with auxiliary information based on available units	2006	-6.5254725525191555	-2.7768956049398463	3583501
3584033	Crypto	bivariate gamma random vectors	1982	-6.5104672082142	-2.5954869194878234	3584060
3585644	ML	characterization of general classes of distributions based on independent property of transformed record values	2014	-6.747402352633356	-2.5697147726904133	3585671
3585820	ML	bias-correcting the realized range-based variance in the presence of market microstructure noise	2009	-6.5171691473335205	-2.6882587857515627	3585847
3586250	AI	new criteria for robust integer-valued designs in linear models	2006	-6.783411701251191	-2.947116835798516	3586277
3587033	ML	solution of the problem of identifying structures of discrete stochastic objects based on the minimum posterior error criterion of distribution densities	2016	-6.592694091130375	-2.906973092825365	3587060
3588212	DB	statistical evaluation of up-to-three-attempt iris recognition	2015	-6.983935452465383	-2.555277351037961	3588239
3590332	ML	bayesian semiparametric modeling of survival data based on mixtures of b-spline distributions	2011	-6.498508961844576	-3.0146935594501834	3590359
3590349	AI	a computer tool for a minimax criterion in binary response and heteroscedastic simple linear regression models	2017	-6.432624071631934	-2.8322912297439133	3590376
3590869	ML	a goodness-of-fit test for location-scale max-stable distributions	2010	-6.386812089325338	-2.821991379697682	3590896
3591619	ML	a sas/iml software program for gee and regression diagnostics	2006	-6.337284367423332	-3.0385563071804844	3591646
3594088	Theory	a note on unimodality and asymptotic normality	1982	-6.3791116264674335	-2.288663898499928	3594115
3595045	SE	to permute or not to permute	2006	-6.744113478627748	-2.9743033149466283	3595072
3595726	ECom	exact prediction intervals for future exponential lifetime based on random generalized order statistics	2011	-6.5613283029810825	-2.1606703070213955	3595753
3598324	SE	exploratory data analysis with bivariate dependence functions	2006	-6.604972069566013	-2.977147046134584	3598351
3598336	ML	binary segmentation and bonferroni-type bounds	2011	-6.871950606430208	-2.352875541985577	3598363
3598582	ML	prediction intervals for the gaussian autoregressive processes following the unit root tests	2012	-6.544926407076037	-2.751776484983977	3598609
3599297	Theory	a new four-parameterweibull model for lifetime data	2017	-6.691177703344684	-2.1659518262039126	3599324
3599676	AI	fitting generalized hyperbolic processes - new insights for generating initial values	2017	-6.676704817837282	-2.6612350321362896	3599703
3601964	ML	on approximating the distributions of goodness-of-fit test statistics based on the empirical distribution function: the case of unknown parameters	2009	-6.599268391268357	-2.656115008157585	3601991
3604659	ML	performance of two classes of bayes-shrinkage estimators of weibull distribution	2016	-6.3974866414873315	-2.758348575065478	3604686
3607586	EDA	efficient stratified sampling implementations in multiresponse simulation	2014	-6.478523572348201	-2.8179564607516534	3607613
3607594	Metrics	robust inference in a linear functional model with replications using the t distribution	2017	-6.617703349141978	-2.696704322474699	3607621
3610950	Web+IR	a comparison of gap statistic definitions with and without logarithm function	2010	-6.601105006442998	-2.90681586232325	3610977
3614356	Web+IR	on bivariate weibull-geometric distribution	2014	-6.658879101975598	-2.7404818370208064	3614383
3615510	AI	a new approach of goodness-of-fit testing for exponentiated laws applied to the generalized rayleigh distribution	2008	-6.825676754888852	-2.4214180219020927	3615537
3615860	ML	optimal level sets for bivariate density representation	2015	-6.4878517774507145	-2.4667810813280218	3615887
3616019	ML	robust estimation under progressive censoring	2003	-6.6046339925083934	-2.617088631183687	3616046
3619088	HPC	the kumaraswamy weibull distribution with application to failure data	2010	-6.685129968920107	-2.2281352651627864	3619115
3620179	Theory	fitting lotka's law: some cautionary observations on a recent paper by newby et al. (2003)	2004	-6.800516097773949	-2.321491110993413	3620206
3623238	AI	fast computation of high-dimensional multivariate normal probabilities	2011	-6.833660593354655	-2.5631564712551778	3623265
3623645	EDA	notes on test homogeneity of the odds ratio in matched pairs under stratified sampling: a monte carlo evaluation	2014	-6.3009669311285	-2.8671811300640333	3623672
3623875	ML	estimating from cross-sectional categorical data subject to misclassification and double sampling: moment-based, maximum likelihood and quasi-likelihood approaches	2006	-6.486773851005433	-3.0473688341387377	3623902
3627812	ML	function based nonlinear least squares and application to jelinski--moranda software reliability model	2011	-6.374871360702512	-2.47837776013439	3627839
3627995	ML	analysis of generalized semiparametric regression models for cumulative incidence functions with missing covariates	2018	-6.29282420139756	-2.8920095187227624	3628022
3629128	ML	a general purpose approximate goodness-of-fit test for progressively type-ii censored data	2012	-6.422753321802918	-2.2280778928013034	3629155
3631877	ML	fully bayesian inference for α-stable distributions using a poisson series representation	2015	-6.532796071784027	-2.486729784588792	3631904
3632166	Vision	on information-estimation relationships over binomial and negative binomial models	2013	-6.948190803793992	-2.57936113577014	3632193
3632265	Theory	from the huang-kotz fgm distribution to baker's bivariate distribution	2013	-6.849986872431548	-2.235341531267142	3632292
3632833	Vision	bootstrapping in non-regular smooth function models	2012	-6.680128924171251	-3.0770013514426853	3632860
3632911	ML	the correlation between mean and variance estimators	1985	-6.44937081832997	-2.386829068647113	3632938
3633974	ML	fixed-length poisson mrf: adding dependencies to the multinomial	2015	-6.647975450219216	-2.504278755731705	3634001
3634109	Logic	similarity test for the expectation of a random interval and a fixed interval	2014	-6.585935080785602	-2.4837178798605355	3634136
3636981	ML	simultaneous analysis of coupled data blocks differing in size: a comparison of two weighting schemes	2009	-6.481110668667348	-2.99206166603441	3637008
3638679	ML	prediction intervals for future order statistics from a generalized modified weibull	2016	-6.600193417750191	-2.8434988057648045	3638706
3640315	Comp.	analysis of incomplete data in presence of competing risks among several groups	2006	-6.344443554336383	-2.614492541586499	3640342
3641152	ML	a portmanteau test for arma processes with infinite variance	2014	-6.363261341147424	-2.7215175387598425	3641179
3641719	Theory	robustness of granulometric moments	1999	-6.98794084350421	-2.9857626404917386	3641746
3641910	Crypto	confidence intervals based on one or more observations	1987	-6.9277238900161855	-2.191017779108844	3641937
3643213	ML	estimation for birnbaum-saunders distribution in simple step stress-accelerated life test with type-ii censoring	2016	-6.549332851614318	-2.473244609627056	3643240
3643396	Theory	exchangeable random variables	2010	-6.662537130515815	-2.262350509629483	3643423
3644304	ML	estimating multivariate discrete distributions using bernstein copulas	2018	-6.5214959899152865	-3.0540364050507796	3644331
3646614	ML	testing equality of inverse gaussian means under heterogeneity, based on generalized test variable	2006	-6.683703395248845	-2.5415612135417143	3646641
3650269	Graphics	a new interpretation and validation of variance based importance measures for models with correlated inputs	2013	-6.388402010149707	-2.317679747932776	3650296
3650798	AI	mosum monitoring for variance change in nonparametric regression models	2018	-6.358585059792823	-3.0329307664935943	3650825
3651281	DB	on construction and simulation of count data models	2008	-6.513194277883778	-2.8530561570457915	3651308
3651685	ML	quadratic estimators of covariance components in a multivariate mixed linear model	2007	-6.959042998354943	-2.958580491535157	3651712
3651735	Theory	marginal regression analysis of clustered failure time data with a cure fraction	2014	-6.2866783543917935	-3.0592512679236816	3651762
3652973	PL	some comments on goodness-of-fit tests for the parametric form of the copula based on l2-distances	2010	-6.523113994223025	-2.898049629009116	3653000
3655188	AI	comparison of spearman's rho and kendall's tau in normal and contaminated normal models	2010	-6.736324518849803	-2.8405434648960464	3655215
3655658	ML	an extension of azzalini's method	2015	-6.784788420137099	-2.3116106831818444	3655685
3656339	ML	identifiability of gaussian structural equation models with dependent errors having equal variances	2018	-6.6305657007069945	-2.8812325523188056	3656366
3658242	ML	comparison of methodologies to assess the convergence of markov chain monte carlo methods	2006	-6.578602032539445	-2.784313101763169	3658269
3658584	AI	approximate power of score test for variance heterogeneity under local alternatives in nonlinear models	2006	-6.657272853622537	-2.6884071915027654	3658611
3659300	ML	on joint and conditional entropies	1999	-6.48607204057867	-2.453670727834355	3659327
3659759	ML	arrival rate approximation by nonnegative cubic splines	2005	-6.784797250908156	-2.6359869223897574	3659786
3661125	ML	fitting piecewise linear copulas to data	2005	-6.5723938913959605	-2.937634835677637	3661152
3661975	AI	analyzing the effect of introducing a kurtosis parameter in gaussian bayesian networks	2009	-6.5554045920268	-2.3737675929014883	3662002
3662649	AI	approximate and generalized confidence bands for the mean and mode functions of the lognormal diffusion process	2007	-6.643085105235382	-2.5960895719751504	3662676
3667299	Theory	contingency matrix theory i: rank and statistical independence in a contigency table	2008	-7.165401947324781	-2.320009732506247	3667326
3669646	ML	a new class of markovian processes for deteriorating units with state dependent increments and covariates	2015	-6.544597073950556	-2.291226709800993	3669673
3670114	ML	case-deletion diagnostics for linear mixed models	2014	-6.423881894093259	-3.0704634331831824	3670141
3670270	ML	on connectivity of fibers with positive marginals in multiple logistic regression	2010	-6.602135036002749	-2.9978485530209715	3670297
3670788	Graphics	a2 paradox in statistical processing of weak signals	2007	-7.204640697021357	-2.7546522315720448	3670815
3671333	ML	usage of a pair of s-paths in bayesian estimation of a unimodal density	2011	-6.448494412268873	-3.044013299991206	3671360
3672640	ML	a computational strategy for doubly smoothed mle exemplified in the normal mixture model	2010	-6.843030884031223	-2.7109688364311535	3672667
3672848	Theory	bayesian model selection for the validation of computer codes	2016	-6.426360027571652	-2.5823442139935486	3672875
3673120	Logic	multidimensional p-p plots and precedence tests for point processes on rd	2013	-6.698050868649951	-2.6228405872198275	3673147
3673277	ML	exact likelihood inference for two exponential populations under joint type-ii censoring	2008	-6.401415677325232	-2.28989424352374	3673304
3675705	ML	inferences on the common mean of several inverse gaussian populations	2010	-6.453297256820713	-3.0791903285292603	3675732
3676341	ML	shrinkage estimators for large covariance matrices in multivariate real and complex normal distributions under an invariant quadratic loss	2009	-7.036897959702546	-2.9891432609109856	3676368
3676467	Comp.	expectation-maximization algorithm for determining natural selection of y-linked genes through two-sex branching processes	2012	-6.445529446216706	-2.2775942610497526	3676494
3678452	Theory	two-sample tests of the equality of two cumulative incidence functions	2007	-6.321000497934557	-2.7667121973046993	3678479
3679276	Theory	covariate unit root tests with good size and power	2012	-6.30131788431484	-2.7880421959296777	3679303
3680362	Vision	target estimation: a new approach to parametric estimation	2011	-6.462627719590071	-3.0786488178239395	3680389
3680395	NLP	confidence intervals for the ratio of coefficients of variation in the two-parameter exponential distributions	2016	-6.510063457973926	-2.483801232925438	3680422
3681060	Vision	density estimation from an individual numerical sequence	1998	-6.918511598807094	-2.3453257282475937	3681087
3682801	AI	minimum sample size estimation in pls-sem: the inverse square root and gamma-exponential methods	2018	-6.600103325488121	-2.4786625244915577	3682828
3683440	AI	small sample improvements in the threshold cointegration test using residual-based moving block bootstrap	2008	-6.4141751547410175	-2.7905965569280857	3683467
3683902	Logic	clt of wavelet estimator in semiparametric model with correlated errors	2012	-6.835364098193965	-2.8374237986918787	3683929
3685380	ML	hypothesis-test for reliability in a stress-strength model, with prior information	1996	-6.570098469708363	-2.607750344035725	3685407
3687456	AI	an efficient randomized quasi-monte carlo algorithm for the pareto distribution	2007	-6.648801536774004	-2.2934224680181594	3687483
3688469	Theory	multivariate extreme models based on underlying skew-t and skew-normal distributions	2011	-6.880218847109487	-2.523418535025306	3688496
3688609	ML	bayesian estimation and prediction for a hybrid censored lognormal distribution	2016	-6.6245227586259805	-2.6604214558737858	3688636
3688951	AI	implementation of a genetic algorithm on md-optimal designs for multivariate response surface models	2012	-6.29787821378379	-2.6486159277517545	3688978
3691913	Vision	flexible bivariate beta distributions	2011	-6.361452080110114	-2.79106470078248	3691940
3692031	ML	multivariate estimation and variance reduction in terminating and steady-state simulation	1988	-6.446343687687723	-2.290646760793313	3692058
3692120	ML	computer programs for exact nonparametric inference	1994	-6.653182050237891	-2.1916266530061472	3692147
3692228	ML	an estimation of the entropy for a rayleigh distribution based on doubly-generalized type-ii hybrid censored samples	2014	-6.650922710907376	-2.7435094674517724	3692255
3693657	ML	a systematic procedure for accurately approximating lognormal-sum distributions	2008	-6.908311723355082	-2.3617002313410005	3693684
3693683	ML	goodness-of-fit tests for elliptical and independent copulas through projection pursuit	2011	-6.666861253105531	-3.0305422081901807	3693710
3695352	NLP	reliability analysis for the pareto model based on the progressive type ii censored sample	2011	-6.3330222484903915	-2.1847662397262453	3695379
3696233	HCI	the effects of task dimensionality, endpoint deviation, throughput calculation, and experiment design on pointing measures and models	2011	-6.8121968036277165	-2.761400886815005	3696260
3696756	ML	linear bayes estimators applied to the inverse gaussian lifetime model	2016	-6.802456281133	-3.0753982299439704	3696783
3697728	ML	lost relatives of the gumbel trick	2017	-7.010896973605188	-2.6343216953151214	3697755
3698089	Crypto	using sectioning to construct confidence intervals for quantiles when applying antithetic variates	2014	-6.5303069406190755	-2.1628347556950382	3698116
3698115	Theory	determination of gegenbauer-type random process models	1997	-6.8846728050044	-2.7531314277170718	3698142
3698863	AI	bayesian estimation of order-restricted and unrestricted association models	2013	-6.393104121521992	-3.005266372569802	3698890
3698930	Theory	alternating runs of geometrically distributed random variables	2011	-6.85617203410019	-2.23380743344658	3698957
3700217	ML	on discrimination between classes of distribution tails	2018	-6.3110422770957015	-2.8451397462800765	3700244
3701728	AI	an improved divergence information criterion for the determination of the order of an ar process	2010	-6.422694919852196	-2.897896944474002	3701755
3701876	ML	an imprecise probabilistic estimator for the transition rate matrix of a continuous-time markov chain	2018	-6.844384352570613	-2.44850956591412	3701903
3705396	ECom	an application of negative binomial distribution of order k in sensitive surveys	2017	-6.421368656601078	-2.337987106022753	3705423
3708221	HPC	alpha power transformed inverse lindley distribution: a distribution with an upside-down bathtub-shaped hazard function	2019	-6.684733133443018	-2.2588476935635207	3708248
3709112	AI	generalized marginal homogeneity model and its relation to marginal equimoments for square contingency tables with ordered categories	2008	-7.001005485732981	-2.152493569043037	3709139
3710313	AI	perturbation of bivariate copulas	2015	-6.388873590002457	-2.7226409523181556	3710340
3711284	ML	a poisson mixed model with nonnormal random effect distribution	2012	-6.5757810254435505	-2.9984679028993204	3711311
3711383	ML	saddlepoint approximation for testing separate location-scale families of hypotheses	2008	-6.928197627582973	-2.7198620153696376	3711410
3711939	ML	a frequency domain bootstrap for whittle estimation under long-range dependence	2013	-6.908922752124124	-2.906137879499612	3711966
3712203	Vision	a note on gradient estimation for maintenance systems	2007	-6.276621018017093	-2.402749748589984	3712230
3713134	AI	systematic sampling is a minimum support design	2007	-6.5096149171793485	-2.1507857123114675	3713161
3715404	ML	consequences of mapping data or parameters in bayesian common-cause analysis	2013	-6.348973533475482	-2.7164181557264286	3715431
3715998	ML	inverted exponential distribution as a life distribution model from a bayesian viewpoint	2007	-6.358051777258557	-2.4893797494020427	3716025
3716959	AI	multivariate generalized pareto distributions: parametrizations, representations, and properties	2018	-6.733817094916541	-2.18252421645376	3716986
3721336	EDA	exponential family of level dependent choquet integral based class-conditional probability functions	2013	-6.712532389680343	-2.8133280917819685	3721363
3721580	ML	a systematic framework for composite hypothesis testing of independent bernoulli trials	2015	-6.8088178841424325	-2.523251559506797	3721607
3722176	ML	robust estimators and tests for bivariate copulas based on likelihood depth	2011	-6.9597677179082575	-3.0028274282814134	3722203
3723704	ML	estimation of kendall's tau from censored data	2010	-6.659523236899236	-2.6544556390424443	3723731
3724834	Vision	on computation of information via variation and inequalities for the entropy function	2010	-6.815468018688635	-2.2594342072844165	3724861
3725077	ML	wavelets and estimation of long memory in nonstationary models: does anything beat the exact local whittle estimator?	2017	-6.823135082333401	-2.494255650609725	3725104
3726628	ML	score tests for the single index model	2002	-6.271592730500164	-3.08958671069148	3726655
3727007	Theory	random coefficient mixture (rcm) garch models	2005	-6.550413096885912	-2.833477499803132	3727034
3730708	ML	non-exchangeable random variables, archimax copulas and their fitting to real data	2011	-6.943154205575673	-2.281996925980026	3730735
3730964	ECom	on estimation of the pdf and cdf of the lindley distribution	2018	-6.848684449878474	-2.539997888103937	3730991
3731021	Logic	comparison of two normal populations with restricted means	2004	-6.486866386149387	-2.149327004414193	3731048
3731422	AI	test for a change point in bernoulli trials with dependence	2004	-6.820272634759643	-2.319313232317049	3731449
3734455	Embedded	overbounding revisited: discrete error-distribution modeling for safety-critical gps navigation	2012	-6.630975444481582	-2.8298546462245446	3734482
3734609	ECom	a multistage chi-square test for measurement of the degree of association in two-way table	2016	-6.512266514450354	-2.7912325513337795	3734636
3737190	ML	the beta-birnbaum-saunders distribution: an improved distribution for fatigue life modeling	2011	-6.508206100009363	-2.1601350623777167	3737217
3737295	ML	a fair review of non-parametric bias-free autocorrelation and spectral methods for randomly sampled data in laser doppler velocimetry	2018	-6.278030186179053	-2.838313946766561	3737322
3738389	Theory	an r implementation for generalized birnbaum-saunders distributions	2009	-6.424994341279621	-2.6775438410145016	3738416
3739972	AI	a mixture model for the connection holding times in the video-on-demand service	2002	-6.6896507515616825	-2.8315037446804165	3739999
3740202	ML	conditional importance sampling estimators	2005	-6.611405354622357	-2.380241755801691	3740229
3741507	AI	a new chi-square approximation to the distribution of non-negative definite quadratic forms in non-central normal variables	2009	-6.93196852642058	-2.5279318345775748	3741534
3742473	ML	a new extension of weibull distribution: properties and different methods of estimation	2018	-6.750979513852477	-2.5978903723760642	3742500
3743788	ML	optimal selection from distributions with unknown parameters: robustness of bayesian models	1996	-6.474532476450936	-2.2446802724838477	3743815
3745538	EDA	empirical likelihood intervals for the population mean and quantiles based on balanced ranked set samples	2009	-6.599716997721022	-2.7605652096006383	3745565
3746011	Theory	statistical estimations of lattice-valued possibilistic distributions	2011	-6.779200907776864	-2.1716047856313136	3746038
3746764	SE	multiple testing procedures for analyzing stratified comparative clinical trials using odds ratios	2006	-6.4529903563134035	-2.7612577688615976	3746791
3746853	AI	computational algorithm of least absolute deviation method for determining number of outliers under normality	2006	-6.34032388845753	-2.87863345607243	3746880
3748071	ML	finite mixture modeling of gaussian regression time series with application to dendrochronology	2016	-6.306223371477745	-2.9135295383289024	3748098
3749638	ECom	measuring discrimination using principles of stochastic dominance	2017	-6.3582905191362675	-2.512530115876201	3749665
3751787	ML	estimating cumulative incidence functions when the life distributions are constrained	2010	-6.797215701045277	-2.5927192239882646	3751814
3752321	ML	estimating the burr xii parameters in constant-stress partially accelerated life tests under multiple censored data	2012	-6.6460472749332125	-2.7483350292493984	3752348
3754204	Vision	kernel density estimation on riemannian manifolds: asymptotic results	2009	-6.870177569537575	-3.031260624200144	3754231
3754619	ML	empirical bayes estimators of the random intercept in multilevel analysis: performance of the classical, morris and rao version	2007	-6.759726180616433	-3.0076448600414283	3754646
3755997	ECom	correlation structure and model selection for negative binomial distribution in gee	2009	-6.6462364750897684	-2.5416903902519907	3756024
3756344	AI	a network flow approach in finding maximum likelihood estimate of high concentration regions	2004	-6.546677371465602	-2.4662029376762566	3756371
3756420	ML	a simulation study of a new family of test statistics for the behrens-fisher problem	2007	-6.450233329593825	-2.81265668057369	3756447
3756763	Theory	analyzing the dynamic system model with discrete failure time distribution	2009	-6.60750173235023	-2.3013457408405937	3756790
3757006	Theory	constructing copulas by means of pairs of order statistics	2009	-6.4434046139234	-2.2472221090723816	3757033
3757894	ML	unbiased condition of the dispersion effects estimator in unreplicated two-level factorial experiments	2016	-6.6070810331665895	-2.896596063546554	3757921
3759258	Logic	limit theory of quadratic forms of long-memory linear processes with heavy-tailed garch innovations	2013	-6.548192805683514	-2.234707860146256	3759285
3761356	Metrics	reliability inferences of modulated power-law process #i	2002	-6.697674294918276	-2.397127438420523	3761383
3767529	AI	from short to long memory: aggregation and estimation	2010	-6.449292627785827	-2.7162271966331346	3767556
3767531	ML	mixture cure models for multivariate survival data	2008	-6.281624002759195	-2.9748264520347916	3767558
3770512	ML	parameter estimation via conditional expectation: a bayesian inversion	2016	-6.359055573480745	-2.557415895689457	3770539
3771276	ML	on consistency of estimators based on random set vector observations	2016	-6.484521463209915	-2.9620770145172477	3771303
3771955	Theory	on the optimal number of classes in the pearson goodness-of-fit tests	2005	-6.837714395509491	-2.862068898186612	3771982
3772307	Theory	on testing of general random closed set model hypothesis	2009	-6.860493694890804	-2.8058448860589205	3772334
3774178	ML	simulation of some autoregressive markovian sequences of positive random variables	1979	-7.0158684202785775	-2.2081122780883446	3774205
3774313	ML	determining the error of dose estimates and minimum and maximum acceptable concentrations from assays with nonlinear dose-response curves	2005	-6.3566563864467795	-2.709154918475945	3774340
3776545	ML	computation of sharp bounds on the distribution of a function of dependent risks	2012	-6.848633824455611	-2.895606261147309	3776572
3777798	ML	a minmax regret linear regression model under uncertainty in the dependent variable	2014	-6.391323089802923	-2.5885192722941044	3777825
3779992	ML	optimal testing strategies for large, sparse multinomial models	2004	-6.556370504351307	-2.876942662605504	3780019
3782019	ECom	a new family of compound lifetime distributions	2014	-6.686838134112015	-2.2908998077856584	3782046
3782025	ML	folded overlapping variance estimators for simulation	2012	-6.707596759394428	-2.432217743694965	3782052
3782085	AI	regression with response distributions of pareto-type	2003	-6.400880943633178	-3.080242805892206	3782112
3782163	DB	statistical independence and contingency matrix	2008	-7.1301122341089425	-2.449208758893499	3782190
3782524	Comp.	response to letter to the editor by philip good on to permute or not to permute	2010	-6.56854424764313	-2.771231746794577	3782551
3784122	ML	detection of parameter change in random coefficient integer-valued autoregressive models	2018	-6.295596736349577	-2.6721473748708746	3784149
3785658	ML	a likelihood ratio approach for probabilistic inequalities	2013	-7.0084056048465655	-2.5816007502375142	3785685
3786169	ML	correlation-induction techniques for estimating quantiles in simulation experiments	1995	-6.713859841874171	-2.4684119697034768	3786196
3787594	ML	semiparametric estimation of gamma processes for deteriorating products	2014	-6.350674260304937	-2.2636703375926497	3787621
3787965	Vision	size-biased random closed sets	1999	-6.403337800894568	-2.2845661003369777	3787992
3789125	Comp.	binomial distribution sample confidence interval estimation for positive and negative likelihood ratio medical key parameters	2005	-6.345113595297054	-2.618648321216768	3789152
3789735	ML	efficient estimation of the pdf and the cdf of the exponentiated gumbel distribution	2016	-6.272140790270102	-2.6814850944769733	3789762
3790576	AI	computational improvements in bootstrap ranking & selection procedures via multiple comparison with the best	2015	-6.295613132769026	-2.9654158727902287	3790603
3792178	Theory	scaling of model approximation errors and expected entropy distances	2014	-6.9705390206490705	-2.5924519113645075	3792205
3792675	AI	a two-parameter weighted lindley distribution and its applications to survival data	2011	-6.444259007344006	-2.2044644109390448	3792702
3793222	ML	wiener processes with random effects for degradation data	2010	-6.6036046362584875	-2.580012439254877	3793249
3794722	ML	reduction of bias and skewness with applications to second order accuracy	2011	-6.6842224364710825	-2.6987099053188257	3794749
3794792	ML	power and sample size calculations for poisson and zero-inflated poisson regression models	2014	-6.626728546239938	-3.002155674029584	3794819
3795021	AI	effects of nonparanormal transform on pc and ges search accuracies	2015	-6.7311677750429	-2.6841177797243656	3795048
3797139	ML	a comparison of clipping strategies for importance sampling	2018	-6.657999875907168	-2.6938906600366472	3797166
3797212	ML	mdl convergence speed for bernoulli sequences	2006	-7.081560763979637	-2.536651571050589	3797239
3797788	Logic	model selection for long-memory processes in the spectral domain	2013	-6.5974120628094175	-3.0640275058484234	3797815
3799049	AI	a new modified weibull distribution	2013	-6.419077883660758	-2.233103047032154	3799076
3799867	Theory	inference for the weibull distribution with progressive hybrid censoring	2012	-6.443503042070788	-2.142295443047642	3799894
3800797	ML	algorithm of exact computation of decomposable statistics distributions and its applications	2017	-6.9649999771391675	-2.2149060842434536	3800824
3803939	ECom	likelihood inference for type i bivariate pólya-aeppli distribution	2017	-6.3112159511290775	-2.4241457978444587	3803966
3804691	ML	on tail index estimation and financial risk management implications	2002	-6.2677549979311955	-2.3963662651479924	3804718
3808010	Vision	estimation of variances in a heteroscedastic rca(1) model	2002	-6.264952571646473	-2.790799274032622	3808037
3808312	ML	a modified skewness measure for testing asymmetry	2010	-6.514731727792512	-2.64938190504366	3808339
3809657	NLP	a clustering-based test for nonadditivity in an unreplicated two-way layout	2016	-6.273682807261936	-2.516508903519458	3809684
3811857	SE	confidence intervals for relative difference in matching pairs under inverse sampling	2014	-6.34990071786704	-2.6704433958865934	3811884
3812269	ML	algorithm 633: an algorithm for linear dependency analysis of multivariate data	1985	-7.086150879799995	-2.2701667961161545	3812296
3812426	ML	bayesian model selection in arfima models	2010	-6.313563932185082	-3.0432718719481384	3812453
3813613	Theory	nonparametric bootstrap tests of conditional independence in two-way contingency tables	2012	-6.3230699642943655	-2.9434844183865247	3813640
3815718	ML	improved estimation of population variance using information on auxiliary attribute in simple random sampling	2014	-6.7901270745510365	-2.8207715782871623	3815745
3815827	ML	fourth-order kernel method for simple linear degradation model	2018	-6.4094143684409275	-2.6993696970038035	3815854
3816194	ML	fitting johnson curves to univariate and multivariate data	1983	-6.610095866203087	-2.921665961353526	3816221
3816257	ML	the centred parameterization and related quantities of the skew-t distribution	2013	-6.867761353120126	-2.4476719651561702	3816284
3817094	ML	randomly weighted average with dirichlet component proportions	2017	-6.494914081594285	-2.8399028533296744	3817121
3820150	AI	poisnor: an r package for generation of multivariate data with poisson and normal marginals	2017	-6.378107670070507	-2.785050222182442	3820177
3820364	ML	a combined likelihood ratio/information ratio bootstrap technique for estimating the number of components in finite mixtures	2014	-6.442500171547782	-2.6756318338440432	3820391
3823032	Robotics	an iterative scheme for maximum likelihood estimation in software reliability modeling	2003	-6.4370389774902055	-2.3153268645331844	3823059
3823203	ML	convergence results for tractable inference in α-stable stochastic processes	2017	-6.899868851052682	-2.426158097483715	3823230
3823764	ML	robust parameter-estimation using the bootstrap method for the 2-parameter weibull distribution	1996	-6.46738056405839	-2.7939960180225247	3823791
3824554	SE	a comparative study of data transformations for wavelet shrinkage estimation with application to software reliability assessment	2012	-6.667379372978126	-2.4036069877516133	3824581
3824773	Logic	in response to ‘on e-value for tandem ms scoring schemes’	2008	-6.536337054048888	-2.5493354226977414	3824800
3825098	ML	approximation of statistical distribution of magnitude squared coherence estimated with segment overlapping	2007	-6.895386336679684	-2.537994073574335	3825125
3827324	Vision	exact maximum likelihood estimation of the parameter in the ar(1) process after hard limiting (corresp.)	1976	-6.88254049030812	-2.6859629718116693	3827351
3828496	ML	internet performance modeling using mixture dynamical system models	2004	-6.775226412018791	-2.948895725272076	3828523
3828641	ML	a permutation procedure for testing the equality of pattern hypotheses across groups involving correlation or covariance matrices	2000	-6.676410314202138	-2.9512662453995184	3828668
3828934	AI	synthetic and runs-rules charts combined with an x¯ chart: theoretical discussion	2017	-6.6022581119844554	-2.3845324265773855	3828961
3830092	EDA	statistical techniques for validation of simulation and analytic stochastic models	2014	-6.433880729617507	-2.7814736727870466	3830119
3830447	Theory	one-sided tolerance limits in balanced and unbalanced one-way random models based on generalized confidence intervals	2004	-6.468213533485341	-2.3316137330389237	3830474
3831375	AI	improved statistical inference for the two-parameter birnbaum-saunders distribution	2007	-6.717294946326997	-2.77791009022296	3831402
3835130	DB	on the relative efficiency of murthy's sampling strategy under a super population model	2016	-6.787235855027034	-2.3214507467409105	3835157
3837088	Graphics	the patchwork rejection technique for sampling from unimodal distributions	1999	-6.946164608083659	-2.1573951024973868	3837115
3837194	NLP	stochastic comparisons on two finite mixture models	2017	-6.643339918119733	-2.2921658451450417	3837221
3837203	ML	e-bayesian estimation for rayleigh model using progressive type-ii censoring data	2017	-6.560430439301483	-2.5840763382769216	3837230
3837473	ML	identifying an observable process with one of several simulation models via umpi test	2004	-6.475461992420922	-2.617601530186964	3837500
3838352	NLP	aggregation of log-linear risks	2014	-6.505839658531189	-2.57016981916904	3838379
3841263	Theory	trimmed regions induced by parameters of a probability	2012	-6.7936998825908965	-2.6107280583619	3841290
3841280	ML	commentary: failure-rate functions for doubly-truncated random variables	2003	-6.672858990235222	-2.4508437045043197	3841307
3842254	DB	robust estimating of a quadratic trend's parameter	2016	-6.702197927486683	-2.9312714375651807	3842281
3843902	ML	improved algorithms for estimating choice probabilities in the multinomial probit model	1984	-6.5758173317112885	-2.8788107632513618	3843929
3843951	HPC	estimation of k-factor gigarch process: a monte carlo study	2008	-6.741676226277722	-3.064723053578648	3843978
3844648	ML	a non-parametric sequential rank-sum probability ratio test method for binary hypothesis testing	2004	-6.356036422106387	-2.7309562531533658	3844675
3845234	ML	construction and sampling of archimedean and nested archimedean lévy copulas	2015	-6.818144722273438	-2.4106368720999343	3845261
3846427	ECom	bootstrap adjustments of signed scoring rule root statistics	2018	-6.546252652493523	-3.058794363986498	3846454
3847766	EDA	a composite importance sampling technique for digital communication system simulation	1990	-6.921387614944872	-2.160852397222925	3847793
3848760	ML	score test for homogeneity of dispersion in generalized poisson mixed models with excess zeros	2017	-6.358006280816264	-2.82325533164217	3848787
3848821	ML	bayesian inference using record values from rayleigh model with application	2008	-6.532248129005732	-2.368543691989597	3848848
3853242	ECom	comparisons of sampling strategies for estimating finite population proportions in direct and randomized response surveys under a super population model	2015	-6.301248680998527	-2.4772395398060256	3853269
3855870	ML	analysis of the risk difference of marginal and conditional probabilities in an incomplete correlated 2×2 table	2006	-6.496594616361366	-2.7591743653840206	3855897
3856134	Vision	student t-tests and compound tests to detect transients in simulated time series	1999	-6.388771212755798	-2.4993680210186957	3856161
3856281	ML	a study of risks of bayes estimators in the generalized half-logistic distribution for progressively type-ii censored samples	2017	-6.39019642324124	-2.869747961252324	3856308
3856440	ML	computing entropies with nested sampling	2017	-6.4925208016674985	-2.256097232733864	3856467
3856885	ML	comparison of approaches for parameter estimation on stochastic models: generic least squares versus specialized approaches	2016	-7.084101756876776	-2.580901674607026	3856912
3857231	ML	a small-sample nonparametric independence test for the archimedean family of bivariate copulas	2008	-6.762498368398597	-3.0771865428657144	3857258
3857277	AI	further improvements in the calculation of censored quantile regressions	2011	-6.654935204549535	-2.2761966575494417	3857304
3857722	AI	optimal confidence interval for the largest normal mean with unknown variance	2004	-6.632546774277574	-2.2286819594544167	3857749
3860461	ML	estimation for non-gaussian locally stationary processes with empirical likelihood method	2012	-6.556720980473959	-2.8713767930535563	3860488
3860536	ML	regression m-estimators with one modified form of doubly censored data	2013	-6.665535891085553	-2.8470190358365297	3860563
3861027	ML	differentially private uniformly most powerful tests for binomial data	2018	-6.976712167733682	-2.9235592993632813	3861054
3861730	Logic	spatial autoregressive and moving average hilbertian processes	2011	-6.591909937134224	-2.501000121516587	3861757
3861753	Metrics	minimum variance unbiased estimation of stress-strength reliability under bivariate normal and its comparisons	2017	-6.797844800440247	-2.151605322519941	3861780
3862117	ML	clustering rows and/or columns of a two-way contingency table and a related distribution theory	2009	-6.657942660685313	-2.744248005119527	3862144
3863764	ML	rescaling, thinning or complementing? on goodness-of-fit procedures for point process models and generalized linear models	2010	-6.867564383665531	-2.7543428770605694	3863791
3863839	AI	a goodness-of-fit test for multivariate multiparameter copulas based on multiplier central limit theorems	2011	-6.766566881940179	-2.733673888395427	3863866
3864264	ML	estimation for models defined by conditions on their l-moments	2016	-6.753934610744865	-2.3583562695720564	3864291
3864785	ML	maximum likelihood estimation of liner signal parameters for poisson processes	1988	-6.712700331165642	-2.7477888571682088	3864812
3870741	ECom	testing for jumps in the stochastic volatility models	2009	-6.798240073397614	-2.7898161705651536	3870768
3871312	HPC	tail dependence functions and vine copulas	2010	-7.023530323814688	-2.2685566094408127	3871339
3871725	ML	bootstrap hypothesis testing for some common statistical problems: a critical evaluation of size and power properties	2007	-6.270874299650763	-2.7613994123609302	3871752
3875025	ML	generating random variates for stable sub-gaussian processes with memory	2017	-6.696169936429929	-2.202182772183896	3875052
3875406	ML	subsampling tests of parameter hypotheses and overidentifying restrictions with possible failure of identification	2013	-6.50273283412733	-3.045880326295477	3875433
3875571	HPC	a new functional statistic for multivariate normality	2011	-6.561680692236581	-2.6839995097782747	3875598
3879944	ML	bayes estimator of inverse gaussian parameters under general entropy loss function using lindley's approximation	2008	-6.580251330364051	-2.908198973349259	3879971
3880842	ML	bootstrap based tests for generalized negative binomial distribution	1998	-6.35516130105953	-2.362761737451296	3880869
3880937	ML	optimally learning populations of parameters	2017	-7.084752330646436	-2.556594236478676	3880964
3881567	Crypto	sequential order statistics with an order statistics prior	2010	-6.626173355045282	-2.5511222243981977	3881594
3883558	ECom	testing serial correlation in partially linear additive errors-in-variables models	2016	-6.471687850842696	-3.033391737196364	3883585
3884769	Theory	some results on a generalized ω-jacobi transform	2004	-6.769053236920192	-2.2531394620204312	3884796
3884999	HCI	a nonparametric statistical test for chaos: cumulative periodogram under an order transformation	2007	-6.823791881937202	-2.6216997743268187	3885026
3885310	ML	study of dual to ratio-cum-product estimator of finite population mean under double sampling in sample surveys	2015	-6.4879915952356075	-2.6591161935592416	3885337
3886331	ML	sequential rank cusum charts for angular data	2017	-6.383533393388758	-2.5153782238010987	3886358
3886531	HPC	performance of variance updating ranking and selection procedures	2005	-6.565623001046204	-2.1784033256671465	3886558
3887929	Embedded	confidence interval for the mean of the exponential distribution, based on grouped data	1996	-6.682666726801736	-2.5866490923751604	3887956
3888419	ML	ratio estimators for the population variance in simple and stratified random sampling	2006	-6.673917440108527	-2.763698594407888	3888446
3890558	ML	on the computation and some applications of multivariate isotonic regression	2007	-6.477062045285945	-2.9504031150511034	3890585
3894655	Logic	trimmed portmanteau test for linear processes with infinite variance	2010	-6.45612981478298	-2.4863577719861087	3894682
3894807	ML	a computer program for estimating the re-transformed mean in heteroscedastic two-part models	2008	-6.443745676255256	-2.685825284575793	3894834
3895236	ECom	testing equality of variances for several normal populations	2017	-6.449404343589171	-2.8532644890022456	3895263
3895440	NLP	a goodness of fit approach to the class of life distributions with unknown age	2015	-6.29431618806376	-2.54455623923748	3895467
3895902	Theory	testing exponentiality against nbufr (nwufr)	2004	-6.668702547349047	-2.370607524238048	3895929
3896336	AI	optimal generalized truncated sequential monte carlo test	2013	-6.6568833205807385	-2.6647938707845227	3896363
3896519	ML	computing moments of ratios of quadratic forms in normal variables	2003	-6.971556738075013	-2.5232299083673806	3896546
3896924	ML	sample size for simultaneous testing of rate differences in non-inferiority trials with multiple endpoints	2009	-6.428670295805832	-2.788245386649852	3896951
3898225	ML	the expected cumulative operational time for finite semi-markov systems and estimation	2007	-6.4121153032201645	-2.309223637927571	3898252
3898350	ML	robustness of resampling-based error rate estimators in two class discrimination under non-normal population	2011	-6.456316923660897	-2.9731651331652516	3898377
3899832	ECom	robustness to non-normality of various tests for the one-sample location problem	2004	-6.336700588028557	-2.7820013805152546	3899859
3900309	ML	entropy measure for the quantification of upper quantile interdependence in multivariate distributions	2015	-6.872229697336952	-2.7636080537749512	3900336
3902243	Embedded	an unsupervised learning problem using limited storage capacity	1970	-6.990466366884707	-2.571247784243212	3902270
3903349	ML	small-sample properties of ml, cols, and dea estimators of frontier models in the presence of heteroscedasticity	1998	-6.606888989350033	-2.931199946778817	3903376
3903432	AI	estimating population sizes for capture-recapture sampling with binomial mixtures	2007	-6.620446175763371	-2.6410914437457222	3903459
3904282	Comp.	sample size for fdr-control in microarray data analysis	2005	-6.416985450195606	-2.8475059374716927	3904309
3905408	HPC	performance of a wavelet-based spectral procedure for steady-state simulation analysis	2007	-6.498969693867616	-2.1614378144306494	3905435
3905585	Theory	point optimal testing: a survey of the post 1987 literature	2015	-6.511966346669979	-2.5200479451735993	3905612
3905597	SE	a flexible weibull extension	2007	-6.4084363250606415	-2.1584206960395425	3905624
3906216	ML	on test statistics in profile analysis with high-dimensional data	2016	-6.416272561774226	-2.9762433317461205	3906243
3906260	ML	estimation of the parameters of the reversed generalized logistic distribution with progressive censoring data	2010	-6.7889664554933775	-2.6910657999380088	3906287
3907298	ECom	an empirical approximation to the null unbounded steady-state distribution of the cumulative sum statistic	2008	-6.768238192658013	-2.6204254956204363	3907325
3908221	ML	the beta-lindley distribution: properties and applications	2014	-6.8213743825026105	-2.190258843788906	3908248
3909908	ML	power of the neyman smooth tests for the uniform distribution	2001	-6.50389137776685	-2.8234097724391294	3909935
3910470	DB	efficient sampling procedure for selecting the largest stationary probability of a markov chain	2018	-6.441083200561148	-2.5362613710405397	3910497
3912566	ML	some tests for the covariance matrix with fewer observations than the dimension under non-normality	2011	-7.0201656592070005	-3.0224802360696006	3912593
3912927	ML	robustness of stein-type estimators under a non-scalar error covariance structure	2009	-6.629959749451776	-2.990532134641183	3912954
3913223	SE	kullback-leibler life time testing	2014	-6.841688902243268	-3.0114630674588705	3913250
3914724	ML	on prediction of individual sequences relative to a set of experts in the presence of noise	1999	-7.0549837371603825	-2.185517857671954	3914751
3915708	ML	characteristic function estimation of ornstein-uhlenbeck-based stochastic volatility models	2011	-6.451495699427628	-2.7857671309454703	3915735
3915768	Theory	testing multivariate uniformity and its applications	2001	-6.8642098066700905	-2.7485776470790446	3915795
3918435	Theory	a new ratio-type imputation with random disturbance	2008	-6.438659865674367	-2.9533444658539074	3918462
3924270	ML	empirical likelihood for the additive hazards model with current status data	2016	-6.370490260275699	-3.093126191197068	3924297
3926728	AI	new goodness-of-fit tests based on fiducial empirical distribution function	2009	-6.642629373202414	-2.4267466917333964	3926755
3927175	AI	on uncertainty and information properties of ranked set samples	2014	-6.562468276988724	-2.850735233159601	3927202
3927703	ML	a new laplace second-order autoregressive time-series model - nlar(2)	1985	-6.525106997742131	-2.5953085919275294	3927730
3930064	Vision	a new nonparametric ewma sign control chart	2012	-6.490101402774024	-2.194819835289928	3930091
3930606	ML	a strong linear representation for the maximum conditional hazard rate estimator in survival analysis	2014	-6.4622845147901495	-2.9016404135989164	3930633
3936553	AI	generalized topographic block model	2016	-6.4235132752730735	-2.462541472049166	3936580
3938288	ML	a nonparametric two-sample wald test of equality of variances	2011	-6.448406963842005	-2.899598066763922	3938315
3938372	AI	tree and local computations in a cross-entropy minimization problem with marginal constraints	2010	-6.70911032433849	-2.155175588053394	3938399
3939681	NLP	the akaike likelihood ratio index	1986	-6.280382127095837	-3.0396862784177907	3939708
3940432	ML	on the existence of the nonlinear weighted least squares estimate for a three-parameter weibull distribution	2008	-6.455404972746264	-2.547744754220869	3940459
3940830	ML	improved exponential type estimators of the mean of a sensitive variable in the presence of nonsensitive auxiliary information	2016	-6.691518660844316	-3.070068933201953	3940857
3941474	Theory	a bootstrap approximation for the distribution of the local whittle estimator	2016	-6.606168498504119	-2.8850794557318733	3941501
3941742	Metrics	bootstrap confidence interval for the median failure time of three-parameter weibull distribution	2007	-6.570205479339691	-2.5401398795749977	3941769
3942703	Graphics	sampling from the gamma distribution on a computer	1976	-6.727021212580185	-2.2080256238644806	3942730
3943322	Robotics	sensitivity of traffic matrix estimation techniques to their underlying assumptions	2007	-6.2993117651987145	-2.9630875266340233	3943349
3944690	DB	bayesian analysis for type-ii hybrid censored sample from inverse weibull distribution	2013	-6.437560247217418	-2.8007819625373096	3944717
3945251	Theory	an algorithm for fitting heavy-tailed distributions via generalized hyperexponentials	2012	-6.621065741992013	-2.6434377136156395	3945278
3946399	Robotics	approximate nonlinear bayesian estimation based on lower and upper densities	2006	-7.019289225239653	-2.7470221999623328	3946426
3946533	ML	piecewise approximate bayesian computation: fast inference for discretely observed markov models using a factorised posterior distribution	2015	-6.645250395430713	-2.8626814858280403	3946560
3948108	ML	small-sample comparisons of confidence intervals for the difference of two independent binomial proportions	2007	-6.657415083962798	-2.4791787446756404	3948135
3948822	Metrics	estimating heavy-tail exponents through max self–similarity	2011	-6.662035324612982	-2.7836096307643627	3948849
3948850	ML	asymptotic distributions for the performance analysis of hypothesis testing of isolated-point-penalization point processes	1999	-7.008488707285041	-2.6888983832459905	3948877
3949374	ML	model selection for integrated autoregressive processes of infinite order	2012	-6.758216252168755	-2.9701070318966893	3949401
3949924	Vision	a general formulation of bradford's distribution: the graph-oriented approach	1981	-6.408441831734012	-2.1650541641621195	3949951
3950456	ML	an alternative sample size estimation for optimizing taper equations fitting	2010	-6.601609435145547	-2.650830400067271	3950483
3951822	AI	selecting the best exponential population under type-ii progressive censoring scheme via empirical bayes approach	2017	-6.6370271586521765	-2.2623774438440725	3951849
3952115	ML	cure rate models considering the burr xii distribution in presence of covariate	2017	-6.322089554407993	-2.6475727114054965	3952142
3952467	SE	bayesian software reliability models based on martingale processes	2003	-6.515192736275535	-2.3535153288524837	3952494
3954267	ML	asymptotic mean and variance of gini correlation under contaminated gaussian model	2016	-6.707481467585376	-2.948498391228997	3954294
3954605	Graphics	cornish-fisher expansions using sample cumulants and monotonic transformations	2012	-6.912347671349317	-2.7321357448078456	3954632
3955815	Metrics	performance of the graybill-deal estimator via pitman closeness criterion	2018	-6.327753652727505	-2.9698556561652465	3955842
3957581	ML	strong consistency of the lad (l1) estimator of parameters of stationary autoregressive processes with zero mean	1989	-6.982669870968713	-2.8171298591898664	3957608
3958551	ML	testing for serial independence of panel errors	2014	-6.534362247221515	-2.8443774935564643	3958578
3958710	Metrics	generalized rayleigh distribution: different methods of estimations	2005	-6.399220077102267	-2.2484717280035533	3958737
3960124	ML	corrected zegers-ten berge coefficients are special cases of cohen's weighted kappa	2014	-6.593426497350134	-2.2549318169576376	3960151
3962552	AI	locally optimal tests for exponential distributions with type-i censoring	2008	-6.73689834577279	-2.337963843353644	3962579
3962570	ML	robust identification of subgraphs in a complete weighted graph associated with a set of random variables	2016	-6.582239124427378	-2.53637154459879	3962597
3965866	ML	estimation in the three-parameter inverse gaussian distribution	2005	-6.485074313817437	-2.741189707012409	3965893
3966266	AI	a new estimator using two auxiliary variables	2005	-6.7873803272264075	-2.7781779988981907	3966293
3967169	AI	improving the performance of kurtosis estimator	2008	-6.333370769857264	-2.904748319732529	3967196
3967487	NLP	estimation of stress-strength reliability from truncated type-i generalised logistic distribution	2015	-6.674916111887883	-2.400948902477162	3967514
3968943	DB	classical and bayesian estimation in log-logistic distribution under random censoring	2018	-6.52346292640063	-2.9992561261164155	3968970
3969827	AI	improved estimation of population mean in simple random sampling using information on auxiliary attribute	2012	-6.799056616130858	-2.791199274129169	3969854
3971646	Theory	distances in random digital search trees	2006	-6.973515108198117	-2.4194294422719507	3971673
3973286	ML	on the reliability of the surrogate data test for nonlinearity in the analysis of noisy time series	2001	-6.873283751756683	-2.6865565653565717	3973313
3974266	ML	goodness-of-fit tests for modeling longitudinal ordinal data	2010	-6.4988572357213625	-2.9916652244906263	3974293
3974877	ECom	multivariate normal mean-variance mixture distribution based on lindley distribution	2018	-6.464528716211091	-2.596110159477809	3974904
3976750	Visualization	how to tell a bad filter through monte carlo simulations	2007	-6.360229045523946	-2.2162935178917653	3976777
3982655	ML	the compound class of linear failure rate-power series distributions: model, properties, and applications	2017	-6.753997013769284	-2.300621751426263	3982682
3982772	ML	efficient markov chain monte carlo with incomplete multinomial data	2010	-6.3331483643819615	-2.7828012920708	3982799
3983890	ML	location and scale mixtures of gaussians with flexible tail behaviour: properties, inference and application to multivariate clustering	2015	-6.8035834583073775	-3.036778157148037	3983917
3984914	PL	a multi-rater nonparametric test of agreement and corresponding agreement plot	2010	-6.2732913140789295	-2.63382622456658	3984941
3986018	NLP	distance correlation coefficients for lancaster distributions	2017	-7.020711433890827	-2.469451485737762	3986045
3987841	DB	on testing indenpendence in multidimensional contingency tables with stratified random sampling	1994	-6.426064266837593	-2.4372789811514894	3987868
3987954	ML	maximum-likelihood estimation of parameters of nhpp software reliability models using expectation conditional maximization algorithm	2016	-6.431381327485505	-2.42221424009619	3987981
3990471	ML	the laplace likelihood ratio test for heteroscedasticity	2011	-6.45503296671168	-3.051452555320853	3990498
3991153	Logic	on an independence test approach to the goodness-of-fit problem	2015	-6.844413973043532	-2.6377423089439485	3991180
3991214	Theory	assessing congruence among ultrametric distance matrices	2009	-6.470106059376858	-2.6393066872870508	3991241
3991326	ML	estimating prediction error: cross-validation vs. accumulated prediction error	2010	-6.284793497505977	-2.837747246751154	3991353
3991951	Graphics	corrigendum: behavior of the norta method for correlated random vector generation as the dimension increases	2003	-6.596496951913623	-2.2859024700361257	3991978
3992899	ML	sequential design of computer experiments for the estimation of a probability of failure	2012	-6.576715713858691	-2.236986776757657	3992926
3993693	Vision	breakpoint detection using covariance propagation	1998	-6.966387939229827	-2.568510954466249	3993720
3996514	ML	adjustive liu-type estimators in linear regression models	2010	-6.3574700926217185	-2.928131293657924	3996541
3998579	AI	statistical process control of a kalman filter model	2014	-6.606842721269497	-2.7240785639633045	3998606
4000355	Metrics	mixed-effects models with skewed distributions for time-varying decay rate in hiv dynamics	2016	-6.268304011538639	-3.0874123533004045	4000382
4000368	Graphics	computing highly accurate confidence limits from discrete data using importance sampling	2014	-6.7064713866589365	-2.8223869845889533	4000395
4006002	Robotics	"""addendum to """"fast computation of designs robust to parameter uncertainty for nonlinear settings"""""""	2010	-6.631083409841667	-2.8680483357259585	4006029
4006255	EDA	d-optimal factorial designs under generalized linear models	2015	-6.6566442893771205	-2.7802350806637453	4006282
4007496	ML	confidence sets in nonparametric calibration of exponential lévy models	2014	-6.555329389847892	-2.7112768012604214	4007523
4009447	AI	gamma expansion of the heston stochastic volatility model	2011	-6.961127349312048	-2.361036531675345	4009474
4009766	ML	bayesian inference for categorical data analysis	2005	-6.310607220631624	-2.785346052099096	4009793
4010952	AI	a revisit to the common mean problem: comparing the maximum likelihood estimator with the graybill-deal estimator	2007	-6.639074054981362	-2.6826359165887936	4010979
4012288	Logic	robust linear functional mixed models	2015	-6.610628125470407	-2.7949521053277664	4012315
4013272	ML	forecast accuracy, coefficient bias and bayesian vector autoregressions	2002	-6.393633420317951	-2.720819708765568	4013299
4013742	Logic	negative dependence, scrambled nets, and variance bounds	2018	-7.0122698689783505	-2.7214583498694807	4013769
4014860	SE	assessing research effectiveness: a comparison of alternative nonparametric models	2017	-6.267618023992058	-2.5519534484552238	4014887
4015074	Robotics	recent developments in input modeling with bézier distributions	1996	-6.630280423840325	-2.802853464778172	4015101
4016352	AI	generating random networks from a given distribution	2008	-6.712554182750176	-2.2961738960307643	4016379
4016743	AI	permutation test for equality of individual an eigenvalue from a covariance matrix in high-dimension	2009	-6.517122001515478	-2.9545480071486008	4016770
4017384	ML	estimating joinpoints in continuous time scale for multiple change-point models	2007	-6.312120768455813	-2.967005680766214	4017411
4018930	ML	bayesian threshold selection for extremal models using measures of surprise	2015	-6.327335819071351	-2.994358174174633	4018957
4019381	ML	optimal filtering for partially observed point processes using trans-dimensional sequential monte carlo	2006	-6.411756895981866	-2.7242077367853867	4019408
4020383	ML	change-point detection in multinomial data using phi-divergence test statistics	2013	-6.568219980430543	-2.829008839956712	4020410
4024003	Metrics	weak convergence of discretely observed functional data with applications	2016	-6.915778206276232	-2.7179245082439194	4024030
4024240	ML	a comparison of block and semi-parametric bootstrap methods for variance estimation in spatial statistics	2011	-6.4886412385061165	-2.7735200654759007	4024267
4025234	AI	on the exact finite sample distribution of the l 1-fcvm test statistic	2014	-6.45120121965562	-2.804888340109402	4025261
4025395	ML	the choice of sample size in estimating entropy according to a strtified sampling	1988	-6.418428775121938	-2.1481746842554967	4025422
4025477	ML	em algorithm for estimating the burr xii parameters with multiple censored data	2010	-6.665237076899041	-2.7425983509375564	4025504
4026196	Theory	a class of models for uncorrelated random variables	2010	-7.016385527175203	-2.4839605337077244	4026223
4027597	ML	unbiased weibull modulus estimation using differential cumulative entropy	2012	-6.612229585650862	-2.8033152144165783	4027624
4029134	ML	on correlated z-values distribution in hypothesis testing	2014	-6.317907592554881	-2.792676503474087	4029161
4029424	Theory	multivariate standardized time series for steady-state simulation output analysis	2001	-6.494460587098532	-2.46856287615567	4029451
4030008	ML	three parameter gamma-type growth curve, using a stochastic gamma diffusion model: computational statistical aspects and simulation	2011	-6.481676617497133	-2.3395400430845683	4030035
4034302	Networks	generating negatively correlated gamma variates using the beta-gamma transformation	1983	-6.926572923430041	-2.4043202320629264	4034329
4035649	Vision	welch method revisited: nonparametric power spectrum estimation via circular overlap	2010	-6.855728376018193	-2.8645127087749285	4035676
4036145	ML	smoothing functional data with a bayesian hierarchical model and robust fitting of a weibull model with optional censoring	2013	-6.520035328612642	-2.742422299044229	4036172
4036302	ML	multiple monte carlo testing, with applications in spatial point processes	2017	-6.537507916192987	-2.666802413057284	4036329
4039519	ML	bowker's test for symmetry and modifications within the algebraic framework	2007	-6.340176570396746	-2.845132005181688	4039546
4040602	ML	fitting of mixtures with unspecified number of components using cross validation distance estimate	2003	-6.360206539925565	-3.0439476451200664	4040629
4044276	Vision	pointwise and simultaneous tolerance limits under logistic regression	2014	-6.677918186562782	-3.018020352333985	4044303
4045624	HPC	phase i analysis of individual observations with missing data	2014	-6.292703779957567	-3.0390403803341384	4045651
4045893	ML	quasi-systematic sampling from a continuous population	2017	-6.8715894837096	-3.000934212354258	4045920
4045947	ML	mann-whitney/wilcoxon's nonparametric cumulative probability distribution	2000	-6.417931385240383	-2.6083767956312247	4045974
4048053	ML	nonparametric likelihood inference for general autoregressive models	2010	-6.32479909704474	-3.0314379478094033	4048080
4048589	Metrics	new variance ratio tests to identify random walk from the general mean reversion model	2006	-6.3434325371812585	-2.5182851854964388	4048616
4049670	ML	parameter estimation for linear fractional stable noise process	2005	-6.736931332388731	-2.4183340763678376	4049697
4050334	Robotics	optimality and robustness of combinations of moving averages	2003	-6.83272991596241	-2.567969740040473	4050361
4051374	OS	performance of tukey's and individual/moving range control charts	2015	-6.588799292895758	-2.5319469501571783	4051401
4051459	EDA	transformation approaches of linear random-effects models	2017	-6.665520071445534	-3.02804469788165	4051486
4052051	Vision	optimization of barron density estimates	2001	-7.009104885170478	-2.727155178703481	4052078
4052810	Theory	a simple multivariate arch model specified by random coefficients	2006	-6.310167672480206	-2.657039782152333	4052837
4054254	Vision	analysis of left truncated and right censored competing risks data	2017	-6.414828990913758	-2.2546480698748703	4054281
4055412	Logic	empirical processes for infinite variance autoregressive models	2012	-6.3797273920718185	-2.8610927633018592	4055439
4055648	ML	nonparametric estimation of quantile density function	2012	-6.728406266294752	-2.7865770325243586	4055675
4059923	Metrics	discriminating among the log-normal, weibull, and generalized exponential distributions	2009	-6.2955110439993085	-2.437213341456156	4059950
4059988	ML	generalized p-values and generalized confidence intervals for variance components in general random effect model with balanced data	2007	-6.491406317665848	-2.850557711878639	4060015
4060534	AI	robust modal estimation and variable selection for single-index varying-coefficient models	2017	-6.392881941723089	-3.0884209076103297	4060561
4063912	SE	bartlett correctable two-sample adjusted empirical likelihood	2010	-6.6995787525952055	-3.0040481403181585	4063939
4065792	ML	an estimation of the entropy for a double exponential distribution based on multiply type-ii censored samples	2012	-6.559356990852586	-2.287568523827418	4065819
4066066	ML	serial dependence of ndarma processes	2013	-6.6675637340301614	-2.7832912054281973	4066093
4066359	ML	a flexible approximate likelihood ratio test for detecting differential expression in microarray data	2009	-6.551319681922233	-2.7840241905663263	4066386
4066965	AI	asymmetric type ii compound laplace distribution and its application to microarray gene expression	2012	-6.428341233371676	-2.8723148946096746	4066992
4067744	Robotics	weighted bootstrap method for fuzzy data	2006	-6.507735675759117	-2.5915869386260604	4067771
4071147	ML	optimum binary cut-off threshold of a diagnostic test: comparison of different methods using monte carlo technique	2014	-6.41206505515805	-2.7263208743228664	4071174
4072980	EDA	modeling the goodness-of-fit test based on the interval estimation of the probability distribution function	2016	-6.403014367685425	-2.1410973387079553	4073007
4073293	AI	some insights of using common random numbers in selection procedures	2013	-6.334749685966884	-2.6424365844377817	4073320
4076080	ML	robust model-based sampling designs	2013	-6.637350577301862	-2.7947088415350865	4076107
4076381	ML	a lifetime distribution based on a transformation of a two-sided power variate	2015	-6.721272589351338	-2.4242445476703125	4076408
4078423	AI	fitting the lognormal distribution to surgical procedure times	2000	-6.301033254699012	-2.626589008683459	4078450
4078477	ML	nonparametric comparison of regression functions	2010	-6.556453456797643	-2.9387011133619017	4078504
4079449	Theory	cumulative conditional expectation index	2018	-6.698069869652513	-2.663711735555398	4079476
4080173	ML	empirical likelihood based rank regression inference	2008	-6.354557509198201	-2.930387562695927	4080200
4080317	ML	an improved estimation to make markowitz's portfolio optimization theory users friendly and estimation accurate with application on the us stock market investment	2012	-6.619191005185101	-2.3716856351043627	4080344
4081016	SE	a generalized bivariate modeling framework of fault detection and correction processes	2017	-6.26799966550007	-2.2764593288771167	4081043
4081875	Theory	on the domain of attraction of a tracy-widom law with applications to testing multiple largest roots	2018	-6.810821483738098	-2.9831461091871985	4081902
4084080	DB	exact computations for the coherence estimate	2007	-6.7453748046910045	-2.709367730776451	4084107
4084415	ECom	the mcdonald inverted beta distribution	2012	-6.317237759465674	-2.509665004967051	4084442
4086327	ML	effect of random errors on generalized distance computations	1972	-6.628252192683632	-2.448348796724072	4086354
4086795	Vision	approximation of the difference of two poisson-like counts by skellam	2018	-6.552564618151879	-2.6904890776769395	4086822
4086814	Networks	best unbiased prediction of order statistics in stable distributions	2018	-6.64141703117298	-2.6115786332753816	4086841
4087070	DB	a simple sequential stopping rule for monte carlo simulation	2006	-6.779978361934592	-2.2863929159846004	4087097
4087991	HPC	the performances of several modified cic criteria for working intra-cluster correlation structure selection in gee analysis	2017	-6.494052939360887	-2.9465764876372136	4088018
4091806	AI	new control charts for monitoring covariance matrix with individual observations	2009	-6.363286915746691	-2.865648492804284	4091833
4092249	ML	extremal dependence of copulas: a tail density approach	2013	-7.02613964534867	-2.241557269487704	4092276
4093398	ML	estimating the conditional extreme-value index under random right-censoring	2016	-6.8260734902643945	-2.4742116373402654	4093425
4093497	ML	efficiency of ratio, product, and regression estimators under maximum and minimum values, using two auxiliary variables	2014	-6.513737547518714	-3.0528087270621818	4093524
4095236	ML	influence analysis of robust wald-type tests	2016	-6.6381509806057775	-2.790652553664002	4095263
4095744	HCI	a bound for the accuracy of sensors acquiring compositional data	2016	-6.8200638139404015	-2.6457993003076608	4095771
4095749	DB	estimating income inequality in the stratified sampling from complete data. i. the unbiased estimation and applications	1989	-6.522277842592382	-2.5939184226977723	4095776
4097781	Theory	determining p optimum calibration points to construct calibration estimators of the distribution function	2015	-6.518112336182781	-2.412385790386048	4097808
4101196	ML	a new weibull-pareto distribution: properties and applications	2016	-6.5818009317210295	-2.3075112877200956	4101223
4102054	ML	parametrically guided nonparametric density and hazard estimation with censored data	2016	-6.327023906865669	-2.91093183079901	4102081
4103519	Theory	a comparison of a new family of goodness-of-fit statistics	1996	-6.525593905161358	-2.3722200133194136	4103546
