id	area	title	year	x	y	ix
1087081	Visualization	levels of detail (lod) engineering of vr objects	1999	5.6729192068792536	-8.833912911722253	1087108
1087578	AI	a knowledge-based approach for designing intelligent team training systems	2000	4.538381266389576	-8.498776046293267	1087605
1088604	Graphics	recovery of lost writings on historical manuscripts with ultraviolet illumination	2003	6.08113809650365	-8.295321066150002	1088631
1088820	Visualization	life forms: an application of computer graphics to support dance choreography	1996	6.1764487739318685	-9.133650313105596	1088847
1090214	Vision	video reshuffling: automatic video dubbing without prior knowledge	2016	6.210929055911063	-8.584082832333449	1090241
1090382	Graphics	using handwriting action to construct models of engineering objects	1982	6.1236587682248445	-9.135854490472736	1090409
1091203	HCI	advancing performability in playable media: a simulation-based interface as a dynamic score	2014	4.536015118466211	-8.682957192353886	1091230
1091821	Graphics	evolutionary non photo-realistic animations with triangular brushstrokes	2010	5.48981081844771	-8.771159557153124	1091848
1092605	HCI	human-computer communication and response	1993	5.043563597504763	-8.632431196245376	1092632
1092761	AI	combining intentionality and belief: revisiting believable character plans	2018	5.095438828837946	-8.146928834444134	1092788
1093064	Graphics	a framework for real-time rendering in virtual reality	1996	5.985309937717839	-9.136344501509646	1093091
1095849	Graphics	flocks, herds and schools: a distributed behavioral model	1987	4.5460547776746845	-8.812412179807028	1095876
1095986	ML	tile-based kolam patterns	2004	6.121930439285023	-8.123217554195671	1096013
1096288	Graphics	sketch-based interfaces for interactive computer graphics	2007	6.210709762578241	-8.898421425354895	1096315
1096397	EDA	a hierarchically structured and constraint-based data model for intuitive and precise solid modeling in a virtual reality environment	2004	5.681066250289716	-8.390186803070746	1096424
1097042	Visualization	a viewer-centric editor for 3d movies	2011	6.069301260054777	-9.559997898972798	1097069
1097313	Visualization	glyph based representation of principal stress tensors in virtual reality environments	2008	6.04517705267291	-8.607792531261136	1097340
1097408	Graphics	development of an xml web based motion capture data warehousing and translation system for collaborative animation projects	2001	5.829713436977634	-9.16896013930649	1097435
1098721	Visualization	filling your shelves: synthesizing diverse style-preserving artifact arrangements	2014	5.336449180106569	-9.380449169912398	1098748
1099173	Robotics	musically meaningful fitness and mutation for autonomous evolution of rhythm accompaniment	2012	5.383778799242849	-8.49072878804726	1099200
1100206	AI	active appearance model-based facial composite generation with interactive nature-inspired heuristics	2006	5.236720134977285	-8.73280632448432	1100233
1100877	OS	interactive graphics today	1980	6.036821510405518	-8.225695886202429	1100904
1100878	PL	avoid common pitfalls when programming 2d graphics in java: lessons learnt from implementing the minueto toolkit	2007	6.2914019460952595	-8.977049533493187	1100905
1102542	Graphics	handmove: a system for creating animated user interface components by direct manipulation	1995	6.212526974316367	-9.004764053929456	1102569
1103420	HCI	virtual reality’s effect on parameter optimisation for crowd-sourced procedural animation	2018	5.397553961825733	-9.026871577519556	1103447
1103465	Robotics	a relation-based model for animating adaptive behavior in dynamic environments	1997	4.677856998681269	-9.28477057642705	1103492
1104561	Graphics	advanced composition in virtual camera control	2011	6.1581796377383045	-9.637488219022458	1104588
1104687	Visualization	modeling and optimization of a tree based on virtual reality for immersive virtual landscape generation	2016	5.177335451973222	-9.470027559472513	1104714
1105321	Graphics	interactive free-hand drawing and in-between generation with dbsc	2005	5.910730032494178	-9.627221592390546	1105348
1105670	NLP	aesthetic learning in an interactive evolutionary art system	2010	5.3142237530064085	-8.445604687600973	1105697
1106045	Graphics	example-based composite sketching of human portraits	2004	5.4301541968931915	-9.269340564390472	1106072
1106450	AI	general video game ai: a multi-track framework for evaluating agents, games and content generation algorithms	2018	4.575799111426428	-7.962304053251487	1106477
1106588	HCI	optimization of data access in behavioral modelling of computer animation	2001	5.967344223889771	-9.211392065109676	1106615
1107007	Graphics	"""2d/3d hybrid character animation on """"spirit"""""""	2002	5.716308020132997	-8.973871423465518	1107034
1107168	ML	the time machine: a multiscreen generative video artwork	2017	5.941588251290359	-9.115230916159351	1107195
1107720	Vision	3d facial model exaggeration builder for small or large sized model manufacturing	2007	5.388671722522215	-9.577505018707935	1107747
1108617	Graphics	highly stylised drawn animation	2006	5.419349268486788	-9.29194730033548	1108644
1108723	AI	a ga-based search approach to creative weave structure design	2008	5.714520582674623	-8.3341534722053	1108750
1109811	HCI	an evaluation of hybrid stacking on interactive tabletops	2017	6.299606315593794	-9.798145767288316	1109838
1110280	HCI	"""tippett studio digital human and make up effects for """"blade 2"""""""	2002	5.867766531090197	-9.743496768275435	1110307
1111384	HCI	a management system for visual communication design at film studio	2009	6.259063156564268	-9.482314657846704	1111411
1112234	Visualization	using realistic virtual environments in the study of spatial encoding	2000	6.233660154204299	-9.683189705340206	1112261
1112265	AI	towards intelligent decision support in human team planning	2017	4.4571475460897965	-8.302609459770354	1112292
1112895	Graphics	high-dynamic-range imaging for artists	2009	5.204755036818669	-9.640910089750149	1112922
1113648	HCI	pegasus: a drawing system for rapid geometric design	1998	5.6928486908751825	-9.556687531547677	1113675
1114695	Graphics	artwork evolution	2010	5.764358580290687	-8.821106105053065	1114722
1115087	HCI	virtual relighting of a roman statue head from herculaneum: a case study	2009	6.101703229328722	-8.590468831467373	1115114
1115459	Graphics	a computer model for pinscreen simulation : a new animation paradigm	1992	5.759541857757419	-9.01929761383667	1115486
1115494	Vision	the system of points of men's artistic gymnastics (mag) - graphic and mathematical models	2003	5.976694584485568	-8.816494357912298	1115521
1115840	Graphics	optical scanning digitizers	1983	5.941535738051241	-8.500688039761863	1115867
1117696	Graphics	image-based virtual world generation	1997	5.872504386467992	-9.204541143091637	1117723
1117955	AI	informing a bdi player model for an interactive narrative	2018	4.991174216975794	-8.209735632125005	1117982
1118139	Robotics	spatial segmentation for immersive media delivery	2011	6.096657962545624	-9.785489001704056	1118166
1118384	AI	evaluating the believability of virtual agents with anticipatory abilities	2014	4.654778831241361	-8.575361293024397	1118411
1119436	EDA	intregated system and methodology for supporting textile and tile pattern design	2003	6.231771194598855	-8.7905804918619	1119463
1119588	Graphics	sketchy rendering	2002	5.7286537859654745	-9.291711366275944	1119615
1120194	Graphics	scented sliders for procedural textures	2012	5.6676610868868025	-9.258882376561498	1120221
1120348	Robotics	bringing up robots or - the psychology of socially intelligent robots: from theory to implementation	1999	4.508562107314603	-8.266652305573446	1120375
1120981	Graphics	shaded computer graphics in the entertainment industry	1978	5.476974765749729	-9.11620181784911	1121008
1121359	AI	towards an evolutionary computational approach to articulatory vocal synthesis with praat	2015	5.354276916688699	-8.602577426209942	1121386
1121530	HPC	knowledge representation - an ontology for managing a virtual environment	2010	4.941892823856604	-8.367835721558523	1121557
1122206	Graphics	modeling light scattering for virtual heritage	2008	6.067826583024812	-8.378565243174046	1122233
1122530	Graphics	surfacing by numbers	2005	5.65554666986262	-9.437872701955168	1122557
1125261	ML	agent assistants for team analysis	2000	4.5866353889459095	-8.040751996388746	1125288
1125415	Robotics	interactive modeling, simulation and control of large-scale crowds and traffic	2009	4.5762797586570185	-9.229865846844284	1125442
1125560	HCI	towards a generic framework for automated video game level creation	2010	5.392103063106935	-8.165922784981822	1125587
1125680	HCI	petri sport: a sport for petri netters	2018	4.609306502554905	-8.47230920028243	1125707
1129165	ML	μtunes: a study of musicality perception in an evolutionary context	2014	5.325402682361322	-8.3099538830265	1129192
1130454	HCI	monte-carlo tree search for simulation-based play strategy analysis	2015	4.551965251006856	-8.151381681056122	1130481
1130504	EDA	interactive graphics for volume modeling	1981	5.685688320283156	-8.227971767150676	1130531
1131324	Graphics	sketch2scene: sketch-based co-retrieval and co-placement of 3d models	2013	5.6082919509300275	-9.436982353043508	1131351
1131743	Graphics	using graphics to study the perception of speech-in-noise, and vice versa	2005	5.30247495112242	-9.779212740553575	1131770
1132858	Graphics	image quality assessment in web-based 3d computer graphics	2000	6.087698779492898	-8.125473239954879	1132885
1132883	Visualization	virtual recovery of excavated archaeological finds	1998	5.8682266417115665	-9.328092947931538	1132910
1133209	HCI	special issue of computer-aided design on virtual and augmented reality technologies in product design	2010	5.455905463615718	-9.759319059720301	1133236
1133210	AI	the ghost in the shell paradigm for virtual agents and users in collaborative virtual environments for training	2013	5.157034363600907	-8.946036507185012	1133237
1133292	AI	introducing an agent of a certain persuasion	2003	4.823218246619332	-8.205996151826659	1133319
1134067	HCI	3d technologies for measurement of painting surface deformations: a case study	2014	5.904098801576434	-8.391605657131606	1134094
1134404	Visualization	virtual simulation for lighting & design education	2009	5.768249083137037	-9.788247472342327	1134431
1134486	AI	tradeoff between problem-solving and learning goals: two experiments for demonstrating assistance dilemma	2012	4.793611825485967	-8.041326470117161	1134513
1134675	ECom	a multiscale model of high-frequency trading	2013	5.683091462545224	-8.295076180332973	1134702
1134882	HCI	cae/vr integration - a qualitative assessment of advanced visualization for interactive conceptual simulations (ics) in industrial use	2018	5.7587411406765545	-9.25256837457376	1134909
1135000	AI	directed transitional composition for gaming and adaptive music using q-learning	2014	5.0709475714760535	-8.565869726340814	1135027
1135207	Robotics	supporting rapid product development with sketch-based modeling	2013	5.735912209651676	-9.361256917365557	1135234
1135495	HCI	a geographically-based multimedia approach to city planning	1994	6.0644068999582945	-8.807366709842851	1135522
1135834	NLP	3d game model and texture generation using interactive genetic algorithm	2012	5.89682791014256	-9.244742165150148	1135861
1136138	Graphics	data-driven color manifolds	2015	5.6875580609011385	-9.685878650356877	1136165
1136615	AI	the digital synaptic neural substrate: a new approach to computational creativity	2016	4.866809323530869	-7.943388540975502	1136642
1137123	Robotics	a planning algorithm for incorporating attempts and nondeterminism into interactive stories	2011	5.752830418235567	-8.173709370884307	1137150
1137457	Visualization	ten cad challenges	2005	5.797338427172155	-8.909656746121781	1137484
1137599	HCI	evotype: from shapes to glyphs	2016	5.581426607485115	-8.27393839138607	1137626
1137705	Visualization	gan lab: understanding complex deep generative models using interactive visual experimentation	2018	6.176815832175602	-8.143783413806903	1137732
1138176	AI	decision tree-based algorithms for implementing bot ai in ut2004	2011	4.5092596710000565	-8.103860028020621	1138203
1138437	Graphics	practical eye movement model using texture synthesis	2003	5.584392908137734	-9.505664527005733	1138464
1138749	HCI	a perception/action substrate for cognitive modeling in hci	2001	5.70380950960651	-9.08489706700392	1138776
1139054	AI	multiparty interactions for coordination in a mixed human-agent teamwork	2017	4.898340728287909	-8.372987318194765	1139081
1139287	Graphics	"""realistic human face rendering for """"the matrix reloaded"""""""	2003	5.7337474372215125	-9.370132998128678	1139314
1139458	Graphics	interactive control of evolution applied to sound synthesis	2005	5.364271802852249	-8.479208749966164	1139485
1140157	AI	reasoning visually about spatial interactions	1991	5.604734594620321	-7.9895202751955905	1140184
1140868	HCI	interactive biomimetic space: an interactive installation to explore living architecture	2011	5.0392316954494785	-8.05399435800513	1140895
1140988	Robotics	3d model dynamic cutting technology based on game engine	2017	5.570612331368236	-9.714592175050623	1141015
1141814	Graphics	the reality of computer graphics in the motion picture industry	1988	6.066082963861174	-8.49108335216191	1141841
1141847	Robotics	a completely procedural approach to materials	2006	5.757923039333638	-9.191133844200444	1141874
1141893	HCI	toward a framework for prototyping physical interfaces in multiplayer gaming: twinspace experiences	2011	6.2432284893144026	-9.723681512838725	1141920
1142510	HCI	methodological approach to evaluate interactive behaviors in team games: an example in handball	2010	4.808047564516008	-8.343644795573425	1142537
1142612	Visualization	user-defined mapping functions and collision detection to improve the user-friendliness of navigation in a virtual reality environment	2003	5.805169089733254	-9.575587189084938	1142639
1143959	Visualization	mental registration of 2d and 3d visualizations (an empirical study)	2003	6.095703825270273	-9.100339749686093	1143986
1144145	HCI	gesturing with shared drawing tools	1993	6.177188663314791	-9.337826686747636	1144172
1144716	Visualization	a virtual reality map interface for geographical information systems	2018	6.295201717408519	-9.23430666925768	1144743
1144825	NLP	automatic evaluation methods in evolutionary music: an example with bossa melodies	2012	5.440056630135379	-8.35302439509497	1144852
1146657	Visualization	visualizing quaternions	2005	6.082376770134553	-8.303257346465967	1146684
1146809	Visualization	intuitive and interactive modification of large finite element models	2004	5.447990759716205	-9.163679536449862	1146836
1148171	Graphics	learning classifier systems and behavioural animation of virtual characters	2006	4.85156903846816	-8.788420811254527	1148198
1148310	Robotics	neuro-visual control in the quake ii game engine	2008	5.663516752858231	-9.30835714683665	1148337
1148650	HCI	application of low-cost 3d scanning technologies to the development of educational augmented reality content	2016	6.142740871787933	-9.055417941176954	1148677
1149505	Robotics	integrating perception, cognition and action for digital human modeling	2007	4.613646666383295	-8.848973224024045	1149532
1149990	Vision	rendering op art lines	2011	5.600456055075433	-9.700508769700363	1150017
1151100	ML	towards estimating and predicting user perception on software product variants	2018	5.897729462123219	-8.2395682823718	1151127
1151217	AI	ql-bt: enhancing behaviour tree design and implementation with q-learning	2013	5.5856893609234115	-8.388616516399086	1151244
1151572	Robotics	hybrid system models of navigation strategies for games and animations	2002	4.7946971468126565	-8.91811363130714	1151599
1151695	HCI	evotype: towards the evolution of type stencils	2018	5.671306451208402	-8.315024023697003	1151722
1154457	AI	"""ikea, """"beds"""""""	2015	5.880142543745423	-9.500825972364948	1154484
1154824	Graphics	study of 3d model function-coded genome in evolutionary design	2009	5.346745060584076	-8.536698303348063	1154851
1155296	AI	learning and game ai	2013	4.505579034077665	-7.9489499591134525	1155323
1155571	AI	iago: interactive arbitration guide online (demonstration)	2016	4.943158437979943	-8.368912369822018	1155598
1156809	AI	"""the """"inverse hollywood problem"""": from video to scripts and storyboards via causal analysis"""	1997	5.826646246627918	-9.475119012300556	1156836
1156907	AI	towards a general framework for artistic style transfer	2018	5.549710115846742	-8.476222570299782	1156934
1157959	Graphics	path-space manipulation of physically-based light transport	2013	5.6542123746286705	-9.219204182351099	1157986
1159534	Graphics	style-based tone mapping for hdr images	2013	5.338412499323948	-9.615079731943778	1159561
1159616	Visualization	art and technology at pixar, from toy story to today	2015	6.122084170033716	-9.002935871893582	1159643
1161139	AI	cognitive modeling of interactions during a negotiation process	2008	5.196678341434705	-8.062459937086832	1161166
1161600	Graphics	magic decorator: automatic material suggestion for indoor digital scenes	2015	5.3012456718552565	-9.414396594545336	1161627
1162215	HCI	real-time modeling and physical-based animation of a jellyfish from softbody in opengl	2012	5.849906386334463	-9.100767247661576	1162242
1162543	Visualization	virtual reality and web tools to convey the visual information of ancient monuments	1997	6.2351945987276665	-8.4325629128151	1162570
1162700	AI	spatial temporal reasoning using qsr, physics, and image processing.	2013	6.122048151034175	-8.063457225212318	1162727
1163128	HCI	gears of war 4: creating a layered material system for 60fps	2017	5.924292737340393	-8.926520947546729	1163155
1164005	AI	fuzzy logic explains the golden proportion	1997	5.865690681309866	-8.134561683781824	1164032
1164017	HCI	designing interfaces to maximize the quality of collaborative work	1999	4.391298267765296	-9.595776406781997	1164044
1164480	ML	investigating the musical affordances of continuous time recurrent neural networks	2016	5.2622717852434375	-8.414805228497745	1164507
1165485	Visualization	advances in computer-generated imagery for flight simulation	1985	4.883484294825942	-9.177109033143166	1165512
1165943	HCI	dreams in high fidelity	2006	5.724433152906423	-9.572849636630544	1165970
1167708	ML	skill-based mission generation: a data-driven temporal player modeling approach	2012	4.650493093645175	-8.158126394699165	1167735
1168014	Theory	2001-2010: ten years of exact string matching algorithms	2011	5.031202682953046	-8.213725100660215	1168041
1168559	Vision	animating the brush-writing process of chinese calligraphy characters	2009	5.7365047718954525	-9.490900093484408	1168586
1169151	Graphics	interactive card weaving design and construction	2013	5.481963635090656	-9.663658603023773	1169178
1169304	AI	agents in chuck: a timely programming experience	2006	4.881466902685424	-8.841625789779423	1169331
1170447	Graphics	brdf representation and acquisition	2016	5.427228909021947	-9.609321393357495	1170474
1170464	Vision	tracking small artists	2009	5.011456124049874	-8.8919384759905	1170491
1171632	Graphics	production framework for full panoramic scenes with photorealistic augmented reality	2012	5.88644105061331	-9.059928357060329	1171659
1171849	AI	development of a cognitive vehicle system for simulation of driving behavior	2016	4.541261424009806	-8.389964722763814	1171876
1172635	Graphics	shading in valve's source engine	2006	5.785161131678753	-8.792626894774184	1172662
1172852	ML	multi-brain bci: characteristics and social interactions	2016	5.456656857329946	-8.23864191353156	1172879
1173297	Robotics	assembly maintainability study with motion planning	1995	4.699942985451128	-9.050401308745876	1173324
1174099	Robotics	a method for the construction of three-dimensional human body	2009	5.895871397456566	-9.43735743622508	1174126
1174413	Robotics	interactive collision detection in three-dimensional visualizations of simulated construction operations	2006	5.576907374183396	-9.022822105142527	1174440
1174448	Vision	curve, draft, and style: three steps to the image	2007	5.7223598350985645	-8.722250900038832	1174475
1174804	EDA	architectures by design: the iterative development of an integrated intelligent agent	2009	4.478277296371005	-8.2359901510499	1174831
1175690	Robotics	towards an intelligent storyboarding tool for 3d games	2005	6.2059178522824805	-8.82460223131519	1175717
1177030	Graphics	the interactive graphics and antimation of gpss/pc	1987	6.1087710579116425	-9.030657177843217	1177057
1177984	Graphics	multi-resolution geometric transfer for jurassic world	2015	5.574862992342603	-9.246358889791688	1178011
1180425	AI	on the development of critics in evolutionary computation artists	2003	5.487830300852313	-8.215270455358747	1180452
1181145	Visualization	design of a computer-aided-design system for museum exhibition based on virtual reality	2017	6.124520254676336	-9.669226171074436	1181172
1181279	HCI	volume cracker: a bimanual 3d interaction technique for analysis of raw volumetric data	2013	5.523435763053416	-9.550620454126896	1181306
1181621	Logic	an interactive approach based on genetic algorithm using ridden population and simplified genotype for avatar synthesis	2002	5.9397948892813	-8.926450211256299	1181648
1181911	Visualization	enhanced illustration using magic lens filters	1997	5.3621354697921255	-9.447853454094403	1181938
1183235	SE	the creation of a virtual nag-algol 68 program library	1985	4.88628973204353	-8.423995847332522	1183262
1183422	AI	modelling car drivers as believable autonomous agents for a traffic control training game	2012	4.476528311266313	-8.438313467116062	1183449
1183780	Vision	enhanced synergistic image creator: an npr method with natural curly brushstrokes	2004	5.591338273995754	-9.572685653693835	1183807
1184691	Visualization	animengine: an engineering animation system	1985	5.780348708535793	-8.715578186119645	1184718
1186719	Visualization	recreating virtual environments from user traffic pattern	2018	5.744841951371992	-8.878941402244406	1186746
1187679	PL	butterfly effect fractal	2009	5.7421344468054265	-8.631707419631374	1187706
1188145	HCI	generation of complex underground systems for application in computer games with schematic maps and l-systems	2016	5.731617811556832	-8.734973182646128	1188172
1189411	Visualization	augmented reality maintenance demonstrator and associated modelling	2015	6.199953417821508	-9.614145861117244	1189438
1189859	AI	the embodiment of a dual/ambr based cognitive model in the rascalli multi-agent platform	2008	4.388079613290433	-8.485714002186263	1189886
1190174	HCI	a sketch-based collaborative design system	2003	6.269731849504575	-9.470491679427509	1190201
1190491	Graphics	modeling flow features with user-guided streamline parameterization	2014	5.795320627908832	-9.066612485321844	1190518
1190648	Robotics	physics-based models for image analysis/synthesis and geometric design	1997	6.073402390757789	-7.919596261531546	1190675
1190699	Graphics	multi-modal presentation of work of arts in virtual reality with simulation of mirror reflection	2006	6.135381383599468	-9.802162785581727	1190726
1191250	Visualization	modeling interactive augmented reality environments	2012	6.252716300171389	-9.141975789175591	1191277
1191560	AI	detecting visibility in multi-agent simulation environments with radial-sort-occulusion-culling	2007	4.507297798479191	-8.781401052407066	1191587
1191899	Robotics	garden alive: an emotionally intelligent interactive garden	2006	4.9987127334781905	-9.180411662549568	1191926
1191934	Graphics	appearance capture and modeling	2015	5.597192748362602	-9.439654473301994	1191961
1192170	HCI	incorporating user design preferences into multi-objective roof truss optimization	2007	6.199583731554751	-8.792342599797847	1192197
1192915	Graphics	a projective drawing system	2001	5.3987442987725975	-9.770675087199717	1192942
1194020	AI	quantifying attention in computer-based tasks	2016	4.774998766272531	-7.970879519702589	1194047
1194161	Vision	cartoon style rendering of crayon textured image	2003	5.826266254588162	-8.811364271586328	1194188
1194379	Graphics	real-time virtual humans	1997	4.802801165690106	-9.317658898351123	1194406
1195276	AI	levels for hotline miami 2: wrong number using procedural content generations	2018	5.082669631032516	-8.339753415448754	1195303
1196858	AI	emotions for a motion: rapid development of believable pathematic agents in intelligent virtual environments	2000	5.465504053673104	-9.235465731967553	1196885
1196881	Robotics	emotional memories in autonomous robots	2014	4.754369214454953	-8.689057281653742	1196908
1197456	Graphics	opensubdiv from research to industry adoption	2013	6.198870397102895	-8.604333004494311	1197483
1197459	Visualization	designing in virtual reality: perception-action coupling and form semantics	1993	5.336124451743354	-8.678465833599873	1197486
1197665	Vision	hdr video past, present and future	2017	5.034496173778907	-9.35546654304091	1197692
1197943	Visualization	technological frontiers in global collaboration - arctis: augmented reality collaborative tangible interactive simulation	2006	5.742576856383407	-9.754282378940497	1197970
1198103	Graphics	a reactive behavior framework for dynamic virtual worlds	2001	5.015628565370925	-9.0013866769654	1198130
1198889	HCI	the future of consumer cameras	2015	5.372478331151779	-9.536153952526107	1198916
1199054	Vision	visual attributes for enhanced human-machine communication	2013	4.5611766070237465	-9.431162958421195	1199081
1199139	Vision	a system for geometrically constrained single view reconstruction	2008	5.503334115826362	-9.341045598058898	1199166
1199294	HCI	exploring controls education: a re-configurable ball and plate platform kit	2016	4.680506205097951	-9.642620645018539	1199321
1199993	HCI	nigao: interactive facial caricature drawing system using genetic algorithm	2005	5.4935628823399965	-9.737642557144383	1200020
1200796	Graphics	towards full-scale ray tracing in games	2016	6.088876483826778	-8.827224691634234	1200823
1200944	Robotics	interior illumination design using genetic programming	2015	5.539320012751671	-8.577487242592595	1200971
1203289	Graphics	computational displays: combining optical fabrication, computational processing, and perceptual tricks to build the displays of the future	2012	5.2386201455595485	-9.628541355513859	1203316
1204009	AI	smartshadow-k: an practical knowledge network for joint context inference in everyday life	2012	4.7279586202153885	-8.564196156008133	1204036
1204965	HCI	towards seamless interaction between physical and virtual locations for asymmetric collaboration	2017	6.260727788601952	-9.79547348738225	1204992
1205082	HCI	designing and implementing an spatial augmented reality x-ray	2008	5.902300258563748	-9.055918005354089	1205109
1205149	HCI	fractal dimension - a spatial and visual design technique for the creation of lifelike artificial forms	2016	5.0021989223234335	-8.253678324139365	1205176
1205192	EDA	reconstruction of 3d interacting solids of revolution from 2d orthographic views	2005	5.289455815911336	-8.686209235953019	1205219
1205353	AI	a lane-changing behavioral preferences learning agent with its applications	2015	4.754642620083226	-7.9451179236341485	1205380
1206181	NLP	introducing blending operations in feature models	1993	5.8694753775500175	-8.832058792766768	1206208
1206234	HCI	a planning plug-in for virtual battle space 2 a report from the trenches	2009	4.558764863134024	-8.219219152500003	1206261
1206393	HCI	getting more cut of programming-by-demonstration	1999	6.160381823776338	-9.041287383875916	1206420
1206577	EDA	optimized mobile rendering techniques based on local cubemaps	2016	5.978001981263964	-8.956239634979548	1206604
1207080	Visualization	towards embodied and situated virtual humans	2008	5.310060066442769	-8.328585107011836	1207107
1207197	Robotics	graphics geometric perception and communication	1975	6.278749822576635	-9.297045791881304	1207224
1210049	AI	computer-vision for the post-production world: facts and challenges through the realviz experience	1999	5.5449611117276385	-9.613609450523164	1210076
1211141	HCI	roblocks: a robotic construction kit for mathematics and science education	2006	4.9948343909340585	-9.469425011807212	1211168
1211969	Visualization	new methods in fractal imaging	2006	6.060762006886331	-9.446282534116284	1211996
1213199	HCI	new directions and developments in mobile gpu design	2013	6.239440892119702	-9.53920820498474	1213226
1213518	Visualization	ballerinas generated by a personal computer	1992	5.927333136051358	-9.323116163062503	1213545
1214110	AI	towards agent-based crowd simulation in airports using games technology	2011	4.680651798778482	-8.761282846305448	1214137
1214117	Graphics	cubist style rendering from photographs	2003	5.1807193462280665	-9.62678261118236	1214144
1214373	Graphics	rapid procedural-modelling of architectural structures	2001	5.7198569256178295	-8.962829447248643	1214400
1214383	Graphics	spacetime constraints revisited	1993	4.5075831636826935	-8.748905840208726	1214410
1215043	AI	learning combat in nethack	2017	4.797671702527016	-8.124935284340742	1215070
1215192	AI	a first prototype of a space model of cultural meaning by natural-language human-robot interaction	2017	4.876677431900727	-8.817986084221818	1215219
1215594	Graphics	moana: geometry based disco ball lighting for tamatoa's lair	2017	5.697494505573461	-9.593935688086631	1215621
1216697	SE	avatar behavior representation and control technique: a hierarchical scripts approach	2004	5.043315863868874	-9.734767921868619	1216724
1217275	HCI	roundshot pipeline at mpc for godzilla	2015	5.527466677331158	-9.515354971875214	1217302
1218083	Visualization	vol2velle: printable interactive volume visualization	2017	5.75031981524929	-9.778771887534722	1218110
1218849	HCI	vibrating tectonics: gestural trajectories, energy mappings and self-conditioning design strategies	2000	6.247195738685282	-9.086866624182496	1218876
1218962	AI	macgyver virtual agents: using ontologies and hierarchies for resourceful virtual human decision-making	2013	4.961863353578932	-8.689595405314451	1218989
1220364	SE	an evolutionary approach to generate rhythm and melody based on repertories	2015	5.442694309036484	-8.633863257539383	1220391
1220429	AI	exploring the impact of freeform gameplay on players' experience: an experiment with maze games at varying levels of freedom of movement	2017	5.8176053574396525	-9.215601138748204	1220456
1220472	Robotics	real-time panospheric image dewarping and presentation for remote mobile robot control	2003	4.647551635341941	-9.25916563820899	1220499
1220524	Graphics	industrial-strength painting with a virtual bristle brush	2010	5.557928260123815	-9.39455169296138	1220551
1220765	HPC	on the omni-directional emergence of form in computation	2004	5.991046977956867	-8.258077547449187	1220792
1220881	ECom	parametric curves for graphic design systems	1983	6.194472549874997	-8.337436685448896	1220908
1220986	Robotics	from ethno-mathematics to generative design: metapatterns and interactive methods for the creation of decorative art	2004	6.007190013980115	-8.77758002210432	1221013
1221158	HCI	strata/icc: physical models as computational interfaces	2001	6.005376006135872	-8.093566247179398	1221185
1221224	Vision	crowd-z: the user-friendly framework for crowd simulation on an architectural floor plan	2014	5.939087474942316	-8.541913435793742	1221251
1221806	AI	generating consistent buildings: a semantic approach for integrating procedural techniques	2011	6.0255996020695735	-8.88692630490119	1221833
1221918	Graphics	multi-scalar 3d digitization of cultural heritage using a low-cost integrated approach	2013	6.0182782513558335	-8.327944587972379	1221945
1222374	AI	neuronal editor agent for scene cutting in game cinematography	2009	6.016219678804579	-9.618949389367256	1222401
1222516	Robotics	software design patterns for enabling auto dynamic difficulty in video games	2012	4.8765172963263055	-8.278661057436699	1222543
1222765	Graphics	foundations of 3d graphics programming - using jogl and java3d	2006	6.253617084868523	-8.361037139345939	1222792
1223291	HCI	an interactive multi-touch sketching interface for diffusion curves	2011	5.546145396280923	-9.481454819843245	1223318
1223993	HCI	towards the automatic optimisation of procedural content generators	2016	5.840453803184456	-8.208847000142221	1224020
1225559	HCI	npr, focussing and emphasis in medical visualizations	2005	6.2723142068104085	-8.394739932287807	1225586
1225586	Graphics	mesh2fab: reforming shapes for material-specific fabrication	2014	5.729664789471692	-9.125677494708162	1225613
1226045	EDA	smartvolumes - adaptive voronoi power diagramming for real-time volumetric design exploration	2007	5.943254960735223	-8.576749760383656	1226072
1226113	Visualization	path planning for complex 3d multilevel environments	2008	4.770863562613676	-8.962016369621773	1226140
1226474	HCI	visual integration: a dynamic approach to the interactive combination of disparate data	2015	5.623964649700613	-8.622525334578093	1226501
1226794	AI	support vector machines for cinematography real-time camera control in storytelling environments	2009	5.7708593947074815	-9.7364093572984	1226821
1227217	Visualization	supervision of task-oriented multimodal rendering for vr applications	2007	4.936960374444976	-8.961360157091468	1227244
1227319	Graphics	msc: a computer assisted system integrating music and video through magic squares as compositional models	2006	6.2352512295527855	-8.854223061622271	1227346
1227699	Theory	the string matching algorithms research tool	2016	5.046910792423291	-8.221880225046295	1227726
1228583	Graphics	a cinematography system for virtual storytelling	2003	6.010187072942616	-9.759791335176136	1228610
1229247	Graphics	physically based computer animation: introduction	2000	5.691919381121508	-8.589731299065066	1229274
1229971	Visualization	interactive volume rendering in virtual environments	2003	6.0911045607603285	-9.108253390687887	1229998
1230266	HPC	research on modeling and simulation of virtual miner agent in coalmine virtual environment	2013	4.760268051055903	-8.41737258101001	1230293
1230282	AI	what's the next move? learning player strategies in zoom poker games	2018	4.485739028365224	-8.049290614077254	1230309
1230557	Web+IR	initial steps for the coupling of javascript physics engines with x3dom	2013	6.142441700904606	-8.946046863015152	1230584
1231599	Robotics	perceptions of asimo: an exploration on co-operation and competition with humans and humanoid robots	2006	4.385389791147911	-9.562520774051695	1231626
1231823	Arch	high-detailed fluid simulations on the gpu	2010	5.85063766178351	-8.88507321528756	1231850
1232008	AI	artificial life techniques for generating controllers for physically modelled characters.	2000	5.022827531791549	-8.642179830009095	1232035
1232219	Vision	reconstruction of cultural artifact using structured lighting with densified stereo correspondence	2009	6.056332326310399	-8.235827113086062	1232246
1232938	Visualization	optimised rendering of geometrically complex natural virtual environments	2007	5.345551082888417	-9.045911783435553	1232965
1233579	Visualization	converting 2d video to 3d: an efficient path to a 3d experience	2011	6.0674650679641875	-9.550270647723336	1233606
1234366	HCI	progress appraisal as a challenging element of coordination in human and machine joint activity	2007	4.6627964079759705	-8.069956138887077	1234393
1234673	HCI	applying painterly concepts in a cg film - bolt	2009	5.809901782861888	-9.348750066952087	1234700
1234946	Graphics	"""universal capture: image-based facial animation for """"the matrix reloaded"""""""	2003	5.6269805477940915	-9.537454205525435	1234973
1235078	HCI	a study on display to improve the visibility of ptp sheets	2007	5.359797563134207	-8.576690040988836	1235105
1235388	HCI	mechanic miner: reflection-driven game mechanic discovery and level design	2013	5.088496696852463	-8.273798975680583	1235415
1235507	Graphics	ray tracing and radiosity (panel): ready for production?	1998	5.875866143192733	-8.764953914232668	1235534
1235948	ECom	trackgen: an interactive track generator for torcs and speed-dreams	2015	4.4879150995328345	-8.300536490279871	1235975
1236122	Graphics	interactive design of modular tensegrity characters	2014	5.204643673496008	-9.739903228443387	1236149
1236136	Graphics	chinese ink and brush painting with reflections	2015	5.360341748471117	-9.272961213218645	1236163
1237180	HCI	programming virtual interactions for gamified educational proposes of urban spaces	2018	6.303763591485771	-9.549177608158187	1237207
1237340	Visualization	jackvr: a virtual reality training system for landing oil rigs	2015	4.585564956311004	-9.33222636258148	1237367
1237979	DB	enhancing cad/cam systems communication by understanding engineering machine drawings	1989	6.0479163020968025	-8.480215647103169	1238006
1238475	Visualization	system structures for efficient rendering in virtual worlds and virtual testbeds	2010	6.155405709538223	-9.26232447684674	1238502
1239297	HPC	remote service to solve the two-dimensional cutting stock problem: an application to the canary islands costume	2008	6.0686122984612325	-9.700367751292816	1239324
1240498	AI	the physical travelling salesman problem: wcci 2012 competition	2012	4.38545972433519	-7.987812942172952	1240525
1240687	AI	an intent-driven planner for multi-agent story generation	2004	4.990860591510946	-8.249419350068868	1240714
1241606	Robotics	learning mechanisms for a tutoring cognitive agent	2007	4.550088557258152	-8.206636670169699	1241633
1241762	AI	multidimensional (md) frame: the basic elements of memory structure	2011	4.45563296293192	-8.998525212300992	1241789
1242097	Visualization	research of the display question in the 3d pipeline management information system	2005	6.044391425753924	-8.458842853714849	1242124
1242361	Graphics	an interactive system for efficient 3d furniture arrangement	2017	5.278942017726117	-9.557515440403753	1242388
1242901	Vision	application of two-stage fuzzy pattern recognition model in the optimization of headphones	2016	6.111082944500882	-9.071189619454797	1242928
1243038	Vision	applying image analysis to assess food aesthetics and uniqueness	2015	6.240341901454558	-9.625418497184047	1243065
1244930	Robotics	visual attention in edited dynamical images	2014	5.9455018735119625	-8.991801151768888	1244957
1245226	Graphics	a high fidelity reconstruction of ancient egypt: the temple of kalabsha	2003	6.1254392137543885	-8.369299012848161	1245253
1245434	AI	generative art inspired by nature, using nodebox	2011	5.4712287171702165	-8.052671559947225	1245461
1245867	Graphics	dreamworks fabric shading model: from artist friendly to physically plausible	2017	5.564866397933725	-9.416704183272222	1245894
1246257	Graphics	determinants of immersivity in virtual reality: graphics vs. action	1994	6.103366108674675	-9.508383965149397	1246284
1246531	HCI	research on 3d scene display technologies of java3d based navigation simulator	2013	5.474003935213744	-9.373464902712255	1246558
1246726	Visualization	a high-quality high-fidelity visualization of the september 11 attack on the world trade center	2008	5.809615751785077	-8.749451144244107	1246753
1246752	Graphics	theories for graphics processors in tips-1	1983	5.901685753709669	-8.716134756555304	1246779
1247673	ECom	general statistical approaches to procedural map generation	2016	5.444659531576389	-7.9529102242433085	1247700
1248223	HCI	digital display case: a study on the realization of a virtual transportation system for a museum collection	2011	5.706750810524865	-9.604067625339116	1248250
1248450	Graphics	sketching a virtual environment: modeling using line-drawing interpretation	1999	6.092586360481699	-9.735639367731574	1248477
1248547	Visualization	modeling and rendering of outdoor scenes for distributed virtual environments	1997	5.3711030213776265	-9.38423713763374	1248574
1248561	Visualization	examining classic color harmony versus translucency color guidelines for layered surface visualization	2015	6.039779504699892	-9.003478624495735	1248588
1249942	Robotics	investigation and realization of multi-agent interaction behavior in intelligent virtual environment	2008	4.821796182964638	-8.720421780220843	1249969
1250133	HCI	a multi-agent system approach for interactive table using rfid	2010	4.682645881799802	-8.733499069821024	1250160
1250299	Graphics	siggraph asia 2016: course notes directions in shape analysis towards functionality	2016	6.178143699612307	-8.316680372131453	1250326
1250916	Robotics	scientific issues concerning androids	2007	4.460639952029325	-9.713061517124947	1250943
1252259	Visualization	castle: a framework for integrating cognitive models into virtual environments	2008	4.514800437476538	-8.735113224602156	1252286
1252411	Vision	3d geometry reconstruction from orthographic views: an improved method exploiting shading information	2017	5.836747242824438	-8.709101770011607	1252438
1253120	Visualization	rapid development of expressive ar applications	2004	6.150327148016933	-9.217106434676344	1253147
1253663	SE	fleece: graphical 3-d trajectory specification software for spatialization in live performance	2000	5.934846681721021	-9.204069103576598	1253690
1253900	Graphics	yoda and beyond: creating the digital cast of star wars episode ii	2002	5.840962532939372	-9.497573127654913	1253927
1254412	Graphics	preliminary results with gauguin, an evolutionary computation approach to creating art in the suprematis style	2007	5.846859032895626	-8.6770778025669	1254439
1255203	Visualization	volvis: a diversified volume visualization system	1994	6.1991456361987725	-8.84413706548887	1255230
1255489	Robotics	networked intelligence by using ontology	2004	4.534776776655047	-8.874435454360727	1255516
1256437	Visualization	reconstructing history with computer graphics	1991	6.122074739820127	-8.223135843305794	1256464
1258708	Graphics	computer-generated papercutting	2007	5.851136108532691	-8.728151102660448	1258735
1259038	Graphics	reliability of computer graphic images for visual assessment	1991	6.06669910358691	-8.403256639771051	1259065
1259780	Graphics	physically based shading in theory and practice	2013	5.569006058345638	-9.25100163214214	1259807
1261464	HCI	3d layout and propagation of environmental phenomena for ice age	2002	6.0656125814076205	-8.970687064687521	1261491
1262099	AI	towards an author intention based computational model of story generation	2012	5.0178824936250095	-9.563919804056017	1262126
1262365	SE	design task in virtual environments development.	2001	4.852917661008502	-8.879024444503543	1262392
1262567	HCI	the coin	2002	5.821672118998139	-9.274359932229704	1262594
1264539	AI	embracing the bias of the machine: exploring non-human fitness functions	2012	5.298593969872284	-8.134500823459302	1264566
1264747	Theory	a quick method for dynamic difficulty adjustment of a computer player in computer games	2015	4.7149485266231865	-8.210926483273113	1264774
1265347	Graphics	psychological evidence for unconscious processing of detail in real-time animation of multiple characters	2000	5.178541058826182	-9.76395014950375	1265374
1265776	NLP	a connexionist model for emotions in digital agents	2016	4.8631675967301815	-8.490460263225923	1265803
1265903	HCI	combining structural analysis and multi-objective criteria for evolutionary architectural design	2011	5.546237450066704	-8.031965080884273	1265930
1267196	AI	resolving ambiguities to create a natural computer-based sketching environment	2001	6.0610877263594976	-9.388808245883306	1267223
1267273	HCI	a haptic toolkit for the development of immersive and web-enabled games	2006	6.305096533736062	-9.745733433600655	1267300
1267515	Vision	3d reconstruction of solid models from engineering orthographic views using variational geometry and composite graphs	2007	5.5340951367405244	-8.082272130449951	1267542
1268140	Graphics	automatic sprite shading	2009	5.641795588821768	-9.351569576369569	1268167
1268879	Graphics	realisation of computer generated integral three dimensional images.	2000	5.7493067537449045	-8.842868760979082	1268906
1269610	SE	engineering in software	1998	5.951733450155613	-8.958852881265054	1269637
1270255	HCI	a collaborative virtual environment for real time assembly design	2006	6.16082089490641	-9.4037861657024	1270282
1270781	Robotics	continuous interactive simulation: engaging the human sensory-motor system in understanding dynamical systems	2010	4.680457529722012	-8.479315866886617	1270808
1271227	AI	modelling autonomous virtual agent behaviours in a virtual environment for risk	2008	4.624525477509027	-8.195107927086301	1271254
1271570	PL	chalkboard: mapping functions to polygons	2009	6.233751006141518	-8.805225555795841	1271597
1271646	Visualization	dual flow interaction: scene flow and data flow, dual interaction in art installations	2011	6.274287728545724	-8.329740162346438	1271673
1271715	HCI	a computational sandbox with human automata for exploring perceived egress safety in urban damage scenarios	2018	4.9922516336193885	-8.958289199426915	1271742
1271958	Robotics	modelling and analysing creative communication within groups of people: the artistic event at fet11	2011	5.084876195244847	-8.181064323114612	1271985
1272117	Visualization	beacon virtua	2018	5.829455717682992	-9.74593830949245	1272144
1272337	Graphics	painting photolization	2013	5.275565434964263	-9.469101773247298	1272364
1274508	HCI	dungeon digger: apprenticeship learning for procedural dungeon building agents	2018	5.5340772028717975	-8.519366062246776	1274535
1275042	HCI	on distributing interactive storytelling: issues of event synchronization and a solution	2004	5.233534607526152	-8.559271178127984	1275069
1275347	Visualization	mixed reality boundaries in museum preservation areas	2013	5.890320040472299	-9.632456117249193	1275374
1275843	Visualization	activity-driven populace: a cognitive approach to crowd simulation	2009	4.675327544869806	-8.676247180660315	1275870
1276083	Graphics	automatic rigging and animation of 3d characters	2007	5.182716832194059	-9.698766713174145	1276110
1276613	Graphics	computer-aided virtual reconstruction of italian ancient clocks	2006	5.9997456099155055	-9.064784765788948	1276640
1277731	Robotics	mobile robotic fabrication on construction sites: dimrob	2012	4.608650291044869	-8.941024377244732	1277758
1278423	Graphics	numerical anamorphosis: an artistic exploration	2015	5.808870337224232	-8.813400600755003	1278450
1278514	HCI	search for efficient device-dependent action sequences in the user interface	2003	6.003490683865732	-9.40857993931543	1278541
1279360	Visualization	real-time navigating crowds: scalable simulation and rendering	2006	4.9363472713654115	-9.017973686796024	1279387
1279746	HCI	from design methodology to evolutionary design: an interactive creation of marble-like textile patterns	2014	5.8226527591208805	-8.406011079769295	1279773
1279862	AI	from rock, paper, scissors to street fighter ii: proof by construction	2006	4.4147292037859724	-8.186336583299791	1279889
1280042	Robotics	a powerful 3d authoring method using 2d image processing techniques	2004	6.231274364250928	-9.330626155190943	1280069
1280605	AI	speeding up search-based algorithms for level generation in physics-based puzzle games	2017	4.759724266139808	-8.18878036085755	1280632
1281233	AI	enhancing artificial intelligence in games by learning the opponent's playing style	2008	4.582601918231314	-8.095257896298063	1281260
1281606	Visualization	dem manipulation and 3-d terrain visualization: techniques used by the u.s. national park service	2001	6.156972785570504	-8.281947901119311	1281633
1281706	Graphics	the tar monster: creating a character with fluid simulation	2004	5.606745452955747	-9.252863648587487	1281733
1282022	AI	water simulation methods for games: a comparison	2012	5.501031200009249	-8.896793291618101	1282049
1282423	HCI	studying believability assessment in racing games	2018	4.5922482853101085	-8.055353182957013	1282450
1282623	AI	controlling narrative time in interactive storytelling	2011	5.60092411730913	-8.353648451375639	1282650
1284113	Robotics	commercial and industrial applications of color ink jet: a technological perspective	1996	5.779118243891291	-8.745358618954443	1284140
1284897	Graphics	an integrated approach to the procedural modeling of ancient cities and buildings	2014	6.157288656948994	-8.193659028705575	1284924
1284942	Graphics	a trigonal prism-based method for hair image generation	1992	5.24795547661171	-9.514920789027943	1284969
1285498	AI	a cognitive tutoring agent with episodic and causal learning capabilities	2011	4.467088519847096	-8.139785869189755	1285525
1286134	Graphics	strands and hair: modeling, animation, and rendering	2007	5.9245150636625175	-9.035626212260263	1286161
1286808	AI	acumen: activity-centric crowd authoring using influence maps	2016	4.954581452575335	-8.581320631358281	1286835
1286985	Visualization	a unified structure for crowd simulation	2012	5.233441299746377	-8.381790994918894	1287012
1287019	Graphics	sketch: an interface for sketching 3d scenes	2006	6.086997058361042	-9.179115736143817	1287046
1287134	Visualization	navigating in a shape space of registered models	2007	5.787064512786804	-9.703506707740123	1287161
1287536	Robotics	automatically generating abstract paintings in malevich style	2014	5.926855331194888	-9.13782684242625	1287563
1288439	Graphics	topological graphics	2001	6.290947660618032	-8.082324332326744	1288466
1288758	AI	to plan or not to plan: lessons learned from building large scale social simulations	2017	4.946089639809432	-8.635605377305042	1288785
1288854	HCI	3d reconstruction of large scale city models as a support to sustainable development	2008	5.381290536287315	-8.71893928672757	1288881
1289196	Vision	simulating rivers in the good dinosaur	2016	5.989707105450457	-8.829977932094225	1289223
1289464	AI	furg smart games: a proposal for an environment to game development with software reuse and artificial intelligence	2012	4.474833768298419	-8.140904290834046	1289491
1289861	HCI	rendering artistic line drawings using off-the-shelf 3-d software	2002	5.678412475446128	-9.343973887589248	1289888
1290601	Robotics	the intersection between cognitive robotics and human robot interaction	2011	4.580330588913356	-9.654804211707589	1290628
1291793	AI	demo: a computer-assisted approach to composing with maestrogenesis	2012	5.662979246984495	-8.485432313744694	1291820
1292787	AI	dynamic quest plot generation using petri net planning	2012	5.858522443773378	-8.313076611579318	1292814
1293053	AI	explaining and predicting the behavior of bdi-based agents in role-playing games	2009	4.982081783046107	-8.080520057862891	1293080
1293264	AI	interactive ground water (igw)	2006	6.185997542363924	-8.262988082546887	1293291
1293562	HCI	vuzik: a painting graphic score interface for composing and control of sound generation	2012	6.1862893402598385	-8.658806088554371	1293589
1294430	DB	top-down construction of 3-d mechanical object shapes from engineering drawings	1984	5.806708690766808	-8.421863194798563	1294457
1295078	HCI	the maze: enabling collaborative planning in games through annotation interfaces	2017	4.4613539783328084	-8.499866991202213	1295105
1295140	AI	open-world planning for story generation	2005	4.798552368146896	-8.157001476640959	1295167
1295328	Graphics	generation of complex sound sequences using physical models with dynamical structures	2006	5.925478110513165	-9.774881399189102	1295355
1296799	AI	parsing real-time musical imputs and spontaneously generating musical forms: hierarchical form generator (hfg)	1992	5.617091971134643	-8.734910081520786	1296826
1297239	Robotics	controlling the focus of perceptual attention in embodied conversational agents	2005	4.685580911902913	-9.132296355050002	1297266
1297260	HCI	agent-based crowd simulation in airports using games technology	2012	4.644877616522623	-8.764436648409612	1297287
1297413	EDA	real-time hair simulation with efficient hair style preservation	2012	5.637189159001308	-8.67803107264149	1297440
1297438	Graphics	a pen and paper metaphor for orchid modeling	2008	5.6441604651834645	-9.49135285047142	1297465
1297883	Graphics	photo clip art	2007	5.0360511761758735	-9.780300367314824	1297910
1298136	HCI	feature driven rule based framework for automatic modeling of organic shapes in the design of personalized medical prosthetics	2010	4.998213196077137	-9.02137928145854	1298163
1298302	Robotics	construction of 3d composite objects from range data	2006	5.449755961691476	-9.168774447230886	1298329
1299111	Graphics	ca-lod: collision avoidance level of detail for scalable, controllable crowds	2009	4.640886538830777	-9.255656763524057	1299138
1300658	HCI	evaluation of a facial animation authoring pipeline seamlessly supporting performance capture and manual key-pose editing	2015	6.145964493906603	-9.693764146131027	1300685
1301031	Graphics	modeling an infinite emotion space for expressionistic cartoon face animation	2003	4.946259771141087	-9.773508046807788	1301058
1302705	Vision	from pherographia to color pherographia: color sketching with artificial ants	2011	5.17248412780479	-8.29439283109434	1302732
1302840	AI	explain yourself: a natural language interface for scrutable autonomous robots	2018	4.383147715718373	-8.910862472626546	1302867
1303047	AI	generación de posturas corporales en agentes virtuales a partir de evidencia neurocientífica	2017	5.132619679868681	-8.255399752964111	1303074
1303687	HCI	customizable panoramic maps	2006	6.055900328005545	-8.705461776134516	1303714
1304140	ML	genetic approaches for evolving form in musical composition	2005	5.350213252592041	-8.272377045595082	1304167
1304847	Graphics	volumetric illustration: designing 3d models with internal textures	2004	5.589964901043173	-9.246734928980167	1304874
1305116	Robotics	the design of shape interactions using motion constraints	1994	4.746065508973967	-9.15203047079099	1305143
1305154	Vision	creating 3d virtual sculptures from vision and touch technologies	2008	6.036823983972057	-8.530910916119298	1305181
1305311	AI	human-agent interaction and machine learning	1997	4.6063419549852185	-8.082749191901963	1305338
1305501	AI	the procedural planning system used in the agent architecture of games	2008	4.481670189983531	-8.457261940755838	1305528
1305729	SE	optimal cover placement against static enemy positions	2013	4.460488741607394	-8.679805802399281	1305756
1305869	HCI	proactive authoring for interactive drama: an author's assistant	2007	5.657096001663757	-8.435288159952325	1305896
1306006	EDA	a new approach to modeling frit patterns for daylight simulation	2015	5.787602844951017	-8.811840591100857	1306033
1307436	Robotics	talking robots	2013	4.49048973730109	-8.70765887574562	1307463
1309427	EDA	zoomorphic design, interchangeable components, and approximate dissections: three new computational tools for open-ended geometric design	2017	5.869312401574351	-8.337090760688044	1309454
1309593	AI	dealing with space in multi--agent systems: a model for situated mas	2002	4.902876498648625	-8.06291826800913	1309620
1309888	AI	a consensus approach to the sentiment analysis problem driven by support-based iowa majority	2017	5.074617570724459	-8.238838526069742	1309915
1310029	AI	simulation of the dynamics of nonplayer characters' emotions and social relations in games	2009	5.0949931694437405	-8.175986349552089	1310056
1310633	Graphics	a taxonomy of modeling techniques using sketch-based interfaces	2008	6.1308128642976225	-9.191393543340658	1310660
1310639	Graphics	computer simulation and animation of muscle cross-bridge motion	1990	5.038776410020313	-9.584422508491276	1310666
1311154	HCI	special issue on visual search and augmented reality	2013	5.312481041601128	-9.568192850305552	1311181
1311242	Visualization	augmented reality application for the maintenance of a flapper valve of a fuller-kynion type m pump	2013	5.126496926411434	-9.742745343668908	1311269
1311720	Logic	bdi-based development of virtual characters with a theory of mind	2009	4.8423715553124485	-8.30536957471099	1311747
1312993	AI	video agent: interactive autonomous agents generated from real-world creatures	2008	4.819075021201598	-9.326850163928157	1313020
1313703	Graphics	an interactive graphics environment for architectural energy simulation	1982	6.245989548054785	-8.618767362572013	1313730
1314320	Visualization	3d visualization of multiscale video key frames	2015	6.236809845457863	-9.248826756191404	1314347
1315003	ML	incorporating fictionality into the real world with transmedia storytelling	2015	5.518667726311339	-8.232393639038122	1315030
1315824	Vision	tlib: a real-time computer vision library for hci	2003	5.939986957264773	-9.242000397567564	1315851
1315881	Vision	towards collaborative immersive environments for parametric modelling	2018	6.011475262348923	-9.581986653498443	1315908
1317306	HCI	game development	2006	6.1097039978870775	-8.916124381303836	1317333
1318776	HCI	the algorithmic beauty of cities: interactive modeling and realtime visualization of compact procedural descriptions	2013	6.090262926397853	-8.451918077810221	1318803
1318910	Graphics	humdpm: a decision process model for modeling human-like behaviors in time-critical and uncertain situations	2011	4.753563924492812	-8.144691964389214	1318937
1319066	Robotics	automatic 3d furniture layout based on interactive evolutionary computation	2013	5.3635319896629	-9.681473907064762	1319093
1319698	Robotics	procedural geometry for real-time terrain visualisation in blueberry3d	2001	5.768714333405958	-8.806998589054256	1319725
1320702	Visualization	augmented reality for improved service delivery	2014	4.3820326186648035	-9.776054807263193	1320729
1320780	Security	measuring brain signals to evaluate the role of creativity in interceptive human movement	2016	4.447431334356391	-9.076997800401598	1320807
1321348	Graphics	parameterizable fonts based on shape components	2001	6.000510474162879	-9.067968449957666	1321375
1321683	AI	behavioral decision making of an artificial fish based on artificial emotion and the cerebellar model articulation controller	2013	4.490988859043328	-8.013278723351378	1321710
1322007	Graphics	computer generated stereoscopic artwork	2005	5.395756354270269	-9.668087936301836	1322034
1322385	HCI	whole-body 3d scanner and scan data report	1997	5.653422071233676	-9.578510300201787	1322412
1322503	AI	artificial life and computational intelligence	2016	5.026791773316715	-8.285170611518343	1322530
1322893	Visualization	yaq: an architecture for real-time navigation and rendering of varied crowds	2009	5.156047504523825	-9.199667927019554	1322920
1323512	Robotics	f-modeling environment: acquisition techniques for obtaining special-purpose features	2013	6.30729676442397	-8.649158004822063	1323539
1323535	Graphics	making faces: eve online's new portrait rendering	2011	5.8830246946647735	-9.182787871254467	1323562
1323742	EDA	screen space re-rendering for the simulation of concert lighting	2010	5.8352312355570595	-8.805761195605827	1323769
1325167	HCI	inspiration from nature	2015	6.215806227101008	-8.704845194652256	1325194
1325263	HCI	"""""""the polar express"""" is bipolar: critical film reviews influence uncanny valley phenomenon in animation films"""	2017	5.477971042787519	-8.994780986834646	1325290
1326440	HCI	stereoscopic displays and applications	2012	4.875967074759919	-9.43828377966182	1326467
1326460	HCI	life-sketch: a framework for sketch-based modelling and animation of 3d objects	2010	5.3259868999600455	-9.626662753521591	1326487
1326817	HCI	the revealing flashlight: interactive spatial augmented reality for detail exploration of cultural heritage artifacts	2014	5.963538117073617	-9.796782355968453	1326844
1326969	Vision	a 3d modelling and photorealistic simulation pipeline for 3d heritage edifices	2018	6.176481773403085	-8.144200051053417	1326996
1330614	Graphics	interactive hairstyle modeling using a sketching interface	2002	5.249280690406166	-9.726870804092588	1330641
1331046	HCI	flexible conversation management using a bdi agent approach	2012	5.091724590068443	-8.453245582565604	1331073
1331431	HCI	draco: living illustrations	2014	5.7028187543348245	-9.387357310863239	1331458
1331478	HCI	interactive wall: dynamic structure in living spaces	2017	6.0725381548621655	-9.677834012843078	1331505
1331864	Graphics	an artistic and tool-driven approach for believable digital characters	2015	6.034714184273526	-8.686116597058492	1331891
1332638	AI	utbot: a virtual agent platform for teaching agent system design	2007	4.521904467824909	-8.404875231398709	1332665
1333063	HCI	crowd character complexity on big hero 6	2015	5.903278894989367	-8.968933897648785	1333090
1335304	AI	cognitive/ai peacekeeping decision support models	2013	5.151974751412534	-8.09454284890656	1335331
1335699	AI	learning human behavior from observation for gaming applications	2009	4.655747207604966	-8.249464008411241	1335726
1335712	Graphics	a 3d modeling system for creative design	2001	5.706971218712268	-9.080264899328627	1335739
1336162	EDA	a sketch-based generation system for oriental cloud pattern design	2014	5.6385589131296925	-9.215482416097807	1336189
1336526	AI	virtual cinematography director for interactive storytelling	2009	5.8723124280425765	-9.713640689632161	1336553
1336568	PL	computer interactive sculpture	1992	5.866022458992567	-9.316744023121393	1336595
1336857	HCI	the fcam api for programmable cameras	2011	6.216361598916419	-9.547474812236779	1336884
1337194	EDA	creation of concept shape designs via a virtual reality interface	1997	6.0825879196190265	-9.383687015516651	1337221
1337940	Graphics	the line of action: an intuitive interface for expressive character posing	2013	5.28855750303987	-9.634578416676495	1337967
1338599	HCI	evaluating the impact of anticipation on the efficiency and believability of virtual agents	2014	4.703274182273291	-8.633112994802076	1338626
1338889	HCI	effects of musically meaningful operators in evolutionary composition	2007	5.26601004833375	-8.428750763509065	1338916
1339380	DB	multiparty proactive communication in agent teamwork	2005	5.163340969445238	-7.944631479601327	1339407
1341664	Graphics	advances in real-time rendering in games part ii	2013	6.220617260748619	-8.804452095750646	1341691
1341986	AI	the application of ai techniques for automatic generation of crowd scenes	2002	4.685461211533277	-9.068870185653166	1342013
1342872	Graphics	breaking the pixel barrier	2005	5.913519142155693	-9.286087827869666	1342899
1342935	Vision	3d reconstruction of landscape models and archaeological objects based on photo and video materials	2018	6.2628270137507025	-8.126186797334846	1342962
1343101	Visualization	digital image processing	1981	4.552944686970765	-9.740527736323244	1343128
1343166	AI	a layered approach for an autonomous robotic soccer system	1997	4.633754354259565	-7.918146142469393	1343193
1343701	Graphics	reconstruction of human fossils	1995	6.009161547888312	-8.211899328219474	1343728
1344587	Vision	virtual city simulator for education, training, and guidance	2004	4.761985804740412	-9.186891540446169	1344614
1344705	AI	evolving card sets towards balancing dominion	2012	4.52214778502768	-7.907743397726341	1344732
1344768	AI	modeling grounding for interactive social companions	2015	5.259483930354032	-8.319326206152475	1344795
1346786	Vision	a heuristic strategy for developing human facial images on a crt	1975	5.840872232140943	-9.756279398017114	1346813
1346894	EDA	a unified test procedure designed for monitoring the experimental settings ensuring quality assurance in 3d and stereoscopic productions	2013	6.038535326080383	-7.904484770354607	1346921
1346922	Visualization	capturing content for virtual museums: from pieces to exhibits	2004	5.9861205205261125	-9.588072574495019	1346949
1347926	HCI	great expectations: prediction in entertainment applications	2004	4.925783091982981	-8.702813227543722	1347953
1348016	Security	an evaluation of the benefits of look-ahead in pac-man	2008	4.390200315005422	-8.005888009354074	1348043
1349820	HCI	scheme implement for rendering of chinese paintings ink fluid style	2008	5.590490375609893	-9.372488155426613	1349847
1350402	Graphics	color sails: discrete-continuous palettes for deep color exploration	2018	5.420683673486458	-9.44567182781099	1350429
1350854	HPC	cavestudy: an infrastructure for computational steering in virtual reality environments	2000	6.038967314023425	-8.850967348641944	1350881
1351429	AI	a syntactic approach based on distortion-tolerant adjacency grammars and a spatial-directed parser to interpret sketched diagrams	2010	6.2301981125901165	-8.539037423282673	1351456
1351491	HCI	fluid brush	2018	6.0357966566200805	-9.642942612658645	1351518
1351528	Vision	new and surprising ways to be mean	2018	4.740632972130506	-7.934913018380983	1351555
1351676	HCI	towards an architecture for collaborative human/ai control of interactive characters	2010	4.849780647144552	-8.900271771802798	1351703
1351915	Graphics	comanches vs cavalry: artistically directable in-crowd ragdoll simulation	2014	5.856163836461521	-9.067779760316398	1351942
1352359	EDA	evolutionary techniques for procedural texture automation	2013	5.2168547449863985	-8.260188355619105	1352386
1352369	HCI	matte painting in the digital age	1998	5.773270512435977	-9.169074632310565	1352396
1353212	HPC	networked haptic virtual environments supporting ultra high resolution display	2009	5.936456653485246	-9.441071331775793	1353239
1353241	Visualization	guest editor's introduction: special issue on visualization 2000	2001	6.2251907543097085	-8.125445624996349	1353268
1353383	DB	the virtual environment - another approach.	2003	4.871225555431245	-8.120582431169618	1353410
1353409	Graphics	automatic illustration of 3d geometric models: surfaces	1990	5.975883383221534	-9.100697307376178	1353436
1355113	Robotics	an ant based approach for generating procedural animations	2010	5.3451153252717765	-8.654503090776844	1355140
1355303	HCI	verbal coordination in first person shooter games	2012	5.312538549380396	-8.521560127504157	1355330
1356701	AI	augmented reasoning in the mirror world	2016	4.730275903790732	-8.620832305210769	1356728
1359271	HCI	interactive adaptive interface using recursive fuzzy reasoning	1993	5.125063472506591	-8.895901523594457	1359298
1360303	HCI	automatic terrain generation with a sketching tool	2012	6.071064852438737	-9.04974968079258	1360330
1361289	AI	a variable neighborhood search algorithm to generate piano fingerings for polyphonic sheet music	2017	5.462076913771416	-8.77900857748394	1361316
1361331	Visualization	high-fidelity iridal light transport simulations at interactive rates	2017	5.567700026373424	-8.486755983586903	1361358
1361840	HCI	content tools & film use of direct3d 10	2007	6.002250937748684	-9.025214852874043	1361867
1362362	AI	roboser: a real-world composition system	2005	4.823122095379869	-9.18513954001018	1362389
1362778	Graphics	allegra: a new instrument for bringing interactive graphics to life	2008	5.797512395737826	-9.259213147905806	1362805
1363129	AI	evolutionary rhythm composition with trajectory-based fitness evaluation	2007	5.407146551255928	-8.523679770737896	1363156
1363625	Robotics	imoshion: a simulation framework using virtual intelligent agents for workplace evacuation in case of emergency situation	2013	4.748342596607588	-9.018117100824904	1363652
1363847	HCI	cinema tutorial	1986	6.278423497390269	-8.978684288442793	1363874
1364057	AI	engagement perception and generation for social robots and virtual agents	2016	5.254898989646131	-8.483805923223194	1364084
1364880	HCI	automatic addition of physics components to procedural content	2010	5.685450755940027	-9.316271250713374	1364907
1365813	AI	clustering behavior to recognize subjective beliefs in human-agent teams	2018	4.552567637349206	-8.679927776019865	1365840
1367418	Graphics	dynamic rational b-spline surfaces	1990	6.0192576423216035	-8.827855371294625	1367445
1367960	DB	geometric and group-theoretic methods for computer graphic studies of islamic symmetric patterns	1992	5.860719029564406	-8.46451094728272	1367987
1368467	Robotics	towards more meaningful interactive narrative with intelligent affective characters	2017	5.979810251232327	-8.031147783595193	1368494
1368658	Robotics	"""playgroup """"number one"""""""	2002	5.914247959942492	-9.517857129202516	1368685
1369822	Visualization	a practical implementation of a 3d game engine	2005	6.238117414389741	-8.973094477075941	1369849
1370177	Graphics	wysiwyg npr: drawing strokes directly on 3d models	2002	5.650097943101787	-9.681986520023486	1370204
1370460	ML	optimizing layout using spatial quality metrics and user preferences	2017	5.314353048377076	-8.296525936597577	1370487
1370776	Graphics	social puppets: towards modular social animation for agents and avatars	2007	5.333963689777028	-9.238805841934454	1370803
1371343	Vision	automating evolutionary art in the style of mondrian	2004	5.6904464743847845	-8.688275781527201	1371370
1371345	Graphics	sony pictures imageworks arnold	2018	5.871641693596271	-9.016914450077852	1371372
1371512	AI	resource management in complex environments: applying to real time strategy games	2014	4.461864609268401	-7.896529249535723	1371539
1371985	Graphics	busico 3d: building simulation and control in unity 3d	2014	5.491016907368347	-9.370775604391818	1372012
1374239	HCI	vignette: a style preserving sketching tool for pen-and-ink illustration with texture synthesis	2012	5.974384366686338	-9.397182123457988	1374266
1375603	EDA	towards feature attachment	1995	5.2744282232143345	-8.712229076928965	1375630
1375820	HCI	colour print workflow and methods for multilayering of colour and decorative inks using uv inkjet for fine art printing	2012	5.833234917709852	-9.075625706233645	1375847
1376324	HCI	virtual mezzotint using a model-driven strategy	2005	5.541309128386407	-9.272889347439175	1376351
1376546	HCI	new cloud animation software on the horizon	2004	5.78369045276172	-8.715382418280571	1376573
1376790	Robotics	real//virtual//real, or, aibohphobia (the phobia of palindromes)	2017	5.98810460576065	-8.84390862928825	1376817
1376820	HCI	heaven and earth	1997	6.119290438262434	-9.262655075971916	1376847
1377283	ML	spectral mesh processing	2009	6.130363955820723	-8.272964976417052	1377310
1379087	Vision	countering adversarial strategies in multi-agent virtual scenarios	2006	4.930931746583812	-8.049735720957345	1379114
1379930	HCI	3d interactive computer games as a pedagogical tool	2006	4.534062427243562	-8.400350855736352	1379957
1379965	HCI	computer graphics and the changing methodology for artists and designers	1988	6.137163133524378	-8.554704678025924	1379992
1380113	ML	example-based authoring of procedural modeling programs with structural and continuous variability	2018	5.779210142486174	-8.842994026814571	1380140
1380357	Visualization	volume composition using eye tracking data	2006	6.044935520531872	-9.20346558672126	1380384
1380392	Graphics	the galaxian project: a 3d interaction-based animation engine	2013	6.261515066417037	-8.78781422839257	1380419
1380828	HCI	(re)telling chess stories as game content	2014	6.277231498966991	-8.739491025422799	1380855
1380838	Graphics	visual immersive haptic mathematics	2009	6.225387801045492	-9.505923745144162	1380865
1380961	Visualization	evolutionary computing method in 3d animation modeling cooperative design	2011	5.418131730885672	-8.586631931396234	1380988
1381131	AI	human-agent teamwork: what is predictability, why is it important?	2016	4.4406999954165824	-8.191120212256182	1381158
1381600	HCI	"""""""kubo and the two strings"""": one giant skeleton, one colossal undertaking"""	2016	5.780790666200768	-9.342212687008434	1381627
1382142	AI	inverting the interaction cycle to model embodied agents	2014	4.820127344122459	-8.312152712057607	1382169
1382259	Visualization	swarming in a virtual world: a pso approach to virtual camera composition	2008	5.134268118350832	-9.187310181900347	1382286
1383220	HCI	a mobile environment for sketching-based skeleton generation	2010	5.306087884278499	-9.651458818287653	1383247
1384667	HCI	anabiosis: an interactive pictorial art based on polychrome paper computing	2011	5.6874882867239105	-9.737410844271723	1384694
1384752	Graphics	3d reconstruction of complex geometric solids from 2d line drawings	2013	5.664146539490093	-8.340778221045657	1384779
1384814	HCI	"""physical models for music and animated image: the use of cordis-anima in """"esquisses""""; a music film by acroe"""	1994	5.784518388530443	-9.096793523996434	1384841
1385799	Robotics	context modeling with evolutionary fuzzy cognitive map in interactive storytelling	2008	4.745026339877907	-8.134501910656207	1385826
1388136	AI	maximizing flow as a metacontrol in angband	2015	4.871334798924882	-7.908925140764178	1388163
1388509	AI	swarmic paintings and colour attention	2013	5.323098393626747	-8.292039513040505	1388536
1388516	HCI	everscape: the making of a disaster evacuation experience	2012	5.023693237275923	-8.993008315570918	1388543
1388655	Vision	automatic computer recognition and analysis of dental x-ray film	1970	4.65186413609563	-9.42670384441743	1388682
1389224	Graphics	a basic hand gesture control system for pc applications	2001	5.021215036553516	-9.652818182246682	1389251
1390866	ML	evolutionary methods for melodic sequences generation from non-linear dynamic systems	2007	5.33248753711325	-8.409030963847915	1390893
1390942	Graphics	questioning naturalism in 3d user interfaces	2012	6.076530669423669	-9.031359076765877	1390969
1391332	AI	agents' interaction in virtual storytelling	2001	5.361104837403149	-8.460218514528094	1391359
1391995	Graphics	monte carlo methods for physically based volume rendering	2018	6.103742705979352	-8.434428627671403	1392022
1392674	Graphics	the digital cathedral of siena - innovative concepts for interactive and immersive presentation of cultural heritage sites	2001	6.091353036975005	-9.232966587111825	1392701
1393979	HCI	virtual crowds: methods, simulation, and control	2008	4.8418041449474405	-8.58632391430761	1394006
1394367	Robotics	evolutionary virtual agent	2004	4.388064377260008	-7.914902371298015	1394394
1394380	Visualization	painting with polygons: a procedural watercolor engine	2013	5.694184024037303	-9.270497434865126	1394407
1395199	Vision	automated contextual annotation of b-rep cad mechanical components deriving technology and symmetry information to support partial retrieval	2012	5.286680162827307	-8.060878965581574	1395226
1395213	Graphics	dynamic fractals	1990	5.800365271775923	-8.861107744410482	1395240
1395370	Logic	algorithms for random maps generation and their implementation as a python library	2018	5.604276532979586	-8.14828113623117	1395397
1395457	Graphics	virtual brush: a model-based synthesis of chinese calligraphy	2000	5.3239413875272765	-9.470677065044072	1395484
1395668	AI	emotionally expressive agents	1999	5.0639134131731405	-9.114965867837928	1395695
1395955	AI	genetic fuzzy modeling of user perception of three-dimensional shapes	2011	6.0445897435269424	-9.425324136042104	1395982
1396475	EDA	extended variational design technology-foundation for integrated design automation	1999	5.959252836537983	-8.043136092801612	1396502
1397833	ML	winch simulation: multiple, linked representations of linear functions	1992	5.174793937412363	-9.189971751783236	1397860
1398589	AI	genetic learning for biologically inspired aesthetic processes	2006	5.009727199974128	-8.242171606889901	1398616
1398732	Robotics	path planning for everyday robotics with sandros	1997	4.616848721658212	-9.332306352258806	1398759
1399016	EDA	increased concurrency between industrial and engineering design using cat technology combined with virtual reality	2003	5.742766246775467	-8.97681392880474	1399043
1399102	HCI	biological motifs designed using the principles of artificial life	2009	4.967477611972112	-8.015678247737608	1399129
1399800	AI	an introduction to opensimulator and virtual environment agent-based m&s applications	2009	4.481295549472413	-8.736086879544235	1399827
1400312	Graphics	bringing together dynamic geometry software and the graphics processing unit	2018	6.217230829189563	-8.805777981815197	1400339
1400709	Visualization	a computer-assisted constraint-based system for assembling fragmented objects	2013	5.539216723803524	-9.445550150975007	1400736
1401168	Robotics	acquiring, modeling and testing freeform sculptures: a sculpture by simon benetton at the campus of the university of trieste	2013	6.2348419134653374	-7.910433876051044	1401195
1401316	NLP	wet and sticky : a novel model for computer-based painting	1991	5.581892487148184	-8.392453311022683	1401343
1401333	AI	ai in computer games : generating interesting interactive opponents by the use of evolutionary computation	2005	4.47768274431813	-8.122256930167655	1401360
1401763	NLP	a multi-objective evolutionary approach to automatic melody generation	2017	5.377648265124508	-8.489441780125809	1401790
1401944	NLP	evaluating chess-like games using generated natural language descriptions	2017	5.449496675756224	-8.285628232432456	1401971
1401945	Arch	drawing abrasive hologram animations with auto-generated scratch patterns	2017	5.632465320528125	-9.519449363080325	1401972
1402218	Visualization	big data analysis for media production	2016	5.953329854663554	-8.77173694681373	1402245
1402250	Graphics	a survey of computer graphics and graphics image processing technology	2011	6.112372789915702	-8.747397992274356	1402277
1402590	HCI	thalamus: closing the mind-body loop in interactive embodied characters	2012	4.602198411802355	-8.729622152424351	1402617
1403553	HCI	texture design and draping in 2d images	2009	5.709003270425093	-9.386698430715072	1403580
1403616	Visualization	continuous improvement process in virtual reality	2007	5.839088665169856	-9.113895859842359	1403643
1403801	Vision	geon-driven shape models for holistic semantics	2005	5.810726207616774	-8.746947340682045	1403828
1403948	HCI	an integrated 2d and 3d pipeline for independent filmmakers	2005	5.884270593812423	-9.223266602568613	1403975
1403996	Graphics	the renderman companion - a programmer's guide to realistic computer graphics	2001	6.200371858442456	-8.476714399345866	1404023
1404145	Graphics	gpus: a closer look	2008	5.7986690603212345	-9.255882942752443	1404172
1404221	AI	using aesthetic learning model to create art	2011	5.267703456268617	-8.340852078507961	1404248
1404699	ML	virtual space teleconferencing system - real time detection and reproduction of 3-d human images	1993	5.728655420028421	-9.3956196095603	1404726
1404795	HCI	from 2d to 3d: a case study of npr and stereoscopic cinema	2015	5.8330631426070685	-9.436235563739693	1404822
1404921	AI	creating and using non-kinetic effects: training joint forces for asymmetric operations	2008	4.42175144419017	-8.494196729955123	1404948
1405339	Graphics	haircraft: spells and incantations for digital hair	2016	5.8647014269143405	-9.306797112908622	1405366
1405802	Graphics	physically based sound for computer animation and virtual environments	2016	5.722049318828652	-9.14070649758651	1405829
1405866	Graphics	integrating 2 1/2-d computer animation techniques for supporting traditional animation	1996	6.099603384921553	-9.01984161774252	1405893
1407075	Graphics	creative tools for producing realistic 3d facial expressions and animation	2016	6.153962538755591	-9.714588539001284	1407102
1408544	Graphics	easytoy: plush toy design using editable sketching curves	2011	5.56731303364469	-9.581513806555003	1408571
1408545	AI	sociocrowd: a social-network-based framework for crowd simulation	2010	4.770600703776137	-8.232149365624268	1408572
1408628	Robotics	a matlab-based interactive simulator for mobile robotics	2015	6.003782226849504	-9.755755587789631	1408655
1409267	Visualization	virtual restoration of a medieval polychrome sculpture - experimentation, modelization, validation and visualization in spectral ray-tracing	2008	6.289441959760431	-8.360477768980644	1409294
1409489	AI	prediction in social path following	2014	4.612547318367467	-9.184349988325208	1409516
1409640	Graphics	"""""""to be of one's own time"""": high-tech meets tradition in computer graphic art"""	1988	5.82986271512984	-9.276807224760308	1409667
1409999	HCI	dirt - dust in real-time: the specification process	2005	6.207633469140565	-8.936707739803762	1410026
1410017	Robotics	vuems: a virtual urban environment modeling system	1997	4.667859418596216	-8.681372501430927	1410044
1410232	Robotics	a method for 3d content creation	2015	5.840558469924271	-9.343471137198707	1410259
1410955	Visualization	visualizing speciation in artificial cichlid fish	2006	4.690001728932829	-7.984099601293981	1410982
1411515	HCI	patterndiviner: a pattern recognition tool	2006	5.598601437564937	-8.249136230303519	1411542
1411723	Visualization	a virtual reality interface for interactions with spatiotemporal 3d data	2018	5.92164178391248	-9.63290112141584	1411750
1412153	HCI	idiotpencil: an interactive system for generating pencil drawings from 3d polygonal models	2011	5.755941857960178	-9.622794061071293	1412180
1412345	Graphics	my little angel	2008	5.7401959836315175	-9.320832079043532	1412372
1412578	HPC	design a pc-cave environment using the parallel rendering approach	2004	5.967465524663543	-9.412487636162783	1412605
1412624	Robotics	precise object interactions using solid modeling techniques	1993	6.017864011749816	-9.562046584036363	1412651
1412897	HCI	polka dot: the garden of water spirits	2013	5.786651083763586	-9.714110759264512	1412924
1413022	HCI	a framework for recognition and animation of chess moves printed on a chess book	2018	5.455833167546063	-9.762553533769339	1413049
1413636	Graphics	computational photography comes into focus	2014	4.956098428237573	-9.32924229099474	1413663
1414281	HCI	geo-topo maps: hybrid visualization of movement data over building floor plans and maps	2014	6.207895211832263	-8.3905490351803	1414308
1414552	Graphics	editorial: special issue on geometric modeling (dagstuhl 2005)	2006	6.115420306155817	-8.020242470788263	1414579
1415017	Graphics	interactive animation: a language and system for procedural modeling and motion	1988	5.973525917683923	-8.776501057760095	1415044
1415232	AI	discovery, evaluation, and exploration of human supplied options and constraints	2015	4.619799953018219	-8.250742331663648	1415259
1415544	SE	an educational purpose built three dimensional printer	2017	4.703314834914512	-9.741100644631176	1415571
1415708	AI	human perceptions of altruism in artificial agents	2014	4.996880517039263	-7.997713478836843	1415735
1415985	HCI	spacedesign: a mixed reality workspace for aesthetic industrial design	2002	5.968575867694439	-9.72707529506334	1416012
1416089	Web+IR	a curiosity model for artificial agents	2017	4.7070547391027056	-8.019464710863927	1416116
1416877	Graphics	what's next? the new era of autonomous virtual humans	2012	5.043804497345024	-8.690669259831424	1416904
1417418	HCI	isles of grain	2009	6.093904794654456	-8.731807829777699	1417445
1417608	Robotics	media processing workflow design and execution with aria	2005	5.037147493640748	-9.531118789157798	1417635
1417687	Graphics	how to cheat and get away with it: what computer graphics can learn from perceptual psychology	1999	5.983702777897264	-8.692344631015535	1417714
1417819	Visualization	distributing pedestrians in a virtual environment	2007	5.057376600558545	-8.637598914783903	1417846
1418406	HCI	benefits of color coding weapons symbology for an airborne helmet-mounted display	1999	4.42336965174322	-9.385151301371863	1418433
1418597	HCI	automatic geometry generation from point clouds for bim	2015	6.087927411219457	-8.143653311382169	1418624
1419159	Robotics	application of panoramic image technology in distance teaching system	2015	6.184837099421309	-9.67702557691582	1419186
1419231	Visualization	the software architecture of a real-time battlefield visualization virtual environment	1999	5.206813884213245	-8.539037693936027	1419258
1419395	Robotics	a mediation system to facilitate cooperation in a co-design platform	2010	4.842814382591325	-8.52027851167121	1419422
1419862	Visualization	botanical tree image generation	1984	5.842469238822621	-8.632775029313564	1419889
1420497	AI	neural learning of embodied interaction dynamics	1998	4.39054444114736	-8.106661431279635	1420524
1421646	Vision	high-quality shading und lighting for hardware-accelerated rendering - revision 1.1	1999	5.962017096818322	-8.456265765542236	1421673
1422239	Graphics	procedural wood textures	2015	5.7487228894101925	-9.059872744373498	1422266
1422369	Visualization	knowledge-assisted visualization of seismic data	2009	5.9784088616833975	-9.037234856333754	1422396
1423054	AI	a pddl-based planning architecture to support arcade game playing	2009	4.463182691618089	-8.040836753543081	1423081
1423565	AI	designing artificial agents to detect the motive profile of users in virtual worlds and games	2016	4.970712270041035	-8.086447376813448	1423592
1424339	AI	toward virtual humans	2006	4.817008404834182	-8.996828507366082	1424366
1425434	Graphics	exploring non-photorealistic rendering with genetic programming	2014	5.473853636915917	-8.501779501300959	1425461
1426004	Graphics	a framework for realistic image synthesis	1997	5.748362588506709	-8.846456547659725	1426031
1426144	Graphics	controllable motion textures	2008	5.4550944682321285	-9.477841774318676	1426171
1427593	SE	3d modeling and section properties of ancient irregular timber structures by means of digital photogrammetry	2007	5.948490530374611	-8.126156639912343	1427620
1427666	HCI	virtual public art, animation and the virtual space of kosuth	2006	6.091912900319601	-9.409646111416423	1427693
1429396	HCI	cognitive and emotional characteristics of communication in human-human/human-agent interaction	2009	4.981287260068494	-8.354406277618052	1429423
1429504	AI	providing deliberation to emotional agents	2011	5.098844398202175	-8.018919463107117	1429531
1429904	Graphics	core-cell tower	2004	5.554882583265392	-9.77924413708743	1429931
1429905	Graphics	real-time rendering of woven clothes	2003	5.3166994247542085	-9.523997044934546	1429932
1430113	HCI	combination of automatic and interactive tools for solution space browsing	2003	6.208343971840304	-8.46641042834028	1430140
1431291	Graphics	production rendering on a local area network	1992	5.458855427979609	-9.416757726261343	1431318
1431353	EDA	in pursuit of real answers	2009	5.841879619965093	-8.115565366698387	1431380
1431639	HCI	adam: adapting multi-user interfaces for collaborative environments in real-time	2018	6.27663320473892	-9.703725370176029	1431666
1433173	AI	procedural content generation for gdl descriptions of simplified boardgames	2015	4.397766890124305	-7.985949750221241	1433200
1433199	HCI	social decision-making driven by artistic explore-exploit tension	2018	4.895714498436172	-8.578892252793398	1433226
1433300	HCI	digitally modeling, visualizing and preserving archaeological sites	2004	6.2852322256732815	-8.143446130495269	1433327
1433307	AI	smart events and primed agents	2010	4.632237364708229	-8.177489973548141	1433334
1433653	Visualization	cad/cae visualization in virtual environment for automotive industry	2003	5.769279832637283	-9.384931529983902	1433680
1433834	Graphics	linguistic methods in picture processing: a survey	1968	6.055952262022637	-8.457320485003036	1433861
1434668	Visualization	intuitive volume rendering on mobile devices	2016	5.915559842718968	-9.707128305062586	1434695
1435161	HPC	defeating lag in network-distributed physics simulations: an architecture supporting declarative network physics representation protocols	2018	5.350006522417852	-9.728238945110943	1435188
1435767	Graphics	rendering fur in life of pi	2013	5.794732091858318	-9.074606150968604	1435794
1435955	Vision	tonality driven piano compositions with grammatical evolution	2015	5.419766782384456	-8.610247421710602	1435982
1436522	Graphics	miranim: an extensible director-oriented system for the animation of realistic images	1985	5.908486157183899	-9.332584886314306	1436549
1437019	Visualization	photogrammetric approaches for the virtual reconstruction of damaged historical remains	2017	6.191514122613758	-7.961918283679166	1437046
1437105	HCI	the bush soul: travelling consciousness in an unreal world	1998	5.073700567287025	-8.817012186431077	1437132
1437728	Graphics	treesketch: interactive procedural modeling of trees on a tablet	2012	5.761148180530566	-8.930845037849254	1437755
1437798	Graphics	mid-level smoke control for 2d animation	2011	5.176714046051027	-9.3302409920002	1437825
1437921	Vision	poetics of migration #2	2004	6.085393885891466	-8.130755317231245	1437948
1438620	Graphics	fast and learnable behavioral and cognitive modeling for virtual character animation	2004	4.620513250645309	-8.577065043735063	1438647
1439264	Graphics	reasoning about action for behavioral animation of intelligent virtual agents	2008	4.715169329962545	-8.6896731557985	1439291
1439948	AI	keynote speech ii: general video game ai: challenges and applications	2015	4.384918530725971	-7.909662790237138	1439975
1439986	Visualization	shape difference visualization for ancient bronze mirrors through 3d range images	2003	5.994523176226817	-8.266988289231698	1440013
1440411	HCI	using ants' task division for better game engines - a contribution to game accessibility for impaired players	2008	4.457921093726656	-8.134611528672503	1440438
1440805	HCI	technical perspective: 3d image editing made easy	2016	5.658092896952676	-9.484479471090527	1440832
1441457	Robotics	fast trajectory generation and correction for non-holonomic systems exploiting lie group symmetries	2014	6.291633397689487	-8.573566715482473	1441484
1441576	EDA	geometric modeling for cooperative product development	1993	5.883742231909815	-8.087885477077997	1441603
1441610	HCI	interaction on augmented reality with finger detection and hand movement recognition	2018	5.3245289998720695	-9.748596303051727	1441637
1441657	AI	socially-conditioned task reasoning for a virtual tutoring agent	2018	5.243499780964967	-8.043975478451795	1441684
1441882	Graphics	4d cubism: modeling, animation, and fabrication of artistic shapes	2018	5.784490086355553	-9.214912128426864	1441909
1442715	Graphics	a tool for automatic cinemagraphs	2012	5.804095665199457	-9.777205069292144	1442742
1443295	AI	artificial intelligence in video games: towards a unified framework	2015	4.729987086802739	-8.170127555483171	1443322
1443462	AI	a genetically generated drone a/v composition using video analysis as a 'disturbance factor' to the fitness function	2014	5.356846244625722	-8.248463416547622	1443489
1443485	Graphics	a non-photorealistic rendering of seurat's pointillism	2006	5.936543933686748	-8.845792403127595	1443512
1443679	Vision	computer vision for sports: current applications and research topics	2017	4.429918395982644	-9.223251533303886	1443706
1443964	DB	a genetic rule-based model of expressive performance for jazz saxophone	2008	6.111376331328871	-8.528450371368468	1443991
1444445	HCI	arpps: augmented reality pipeline prospect system	2015	4.931715708029111	-9.072151541892458	1444472
1444825	Robotics	design support mechanism of learning agent on repository-based agent framework	2012	4.396625418431339	-8.271628507671856	1444852
1444929	Graphics	moving picture synthesis at linkoping university	1985	6.280652352873916	-8.771233785458508	1444956
1445416	Vision	evolving assemblages	2015	5.694444198811889	-8.816128324787028	1445443
1445527	Graphics	decobrush: drawing structured decorative patterns by example	2014	5.90360582190033	-9.439729110976213	1445554
1445718	Graphics	voice of whale	2004	5.791580926608021	-9.287600221192028	1445745
1445819	Visualization	d3part: a new model for redistribution and plasticity of 3d user interfaces	2016	5.734741431936049	-9.308518216093116	1445846
1446620	AI	recognition of dimension sets and integration with vectorized engineering drawings	1995	5.858734352455313	-8.588630723624249	1446647
1446631	EDA	3d rapid modeling for headframe foundation	2011	5.535278738090842	-8.486768072428267	1446658
1447249	ML	from images to 3d models made easy	2011	5.8996318672850965	-8.658894364138312	1447276
1447492	Mobile	teaching playground for c&c language embeddedmontiarc	2018	5.678017976672822	-9.493609796489212	1447519
1447805	HCI	interactive visualization of line congruences for spatial mechanism design	2002	5.1613912342843165	-9.01732601701343	1447832
1449471	HCI	a synthetic moviemaker for spatial representation	2006	6.064949010276322	-8.817709766762775	1449498
1450159	AI	animated construction of ink-wash paintings	2014	4.993648772406021	-9.369174740707932	1450186
1450208	Robotics	negotiated and reciprocal exchange structures in human-agent cooperation	2019	4.8450645881123044	-8.184404028118662	1450235
1450261	AI	arena - dynamic run-time map generation for multiplayer shooters	2014	4.550259216007555	-8.207353782199966	1450288
1450674	ML	driven by compression progress	2008	5.312293469156357	-8.080692544095626	1450701
1451687	HCI	a framework for the structured design of vr/ar content	2000	6.111272475566538	-9.626017256478068	1451714
1452840	Visualization	cluster-based solution for virtual and augmented reality applications	2005	6.171712035911997	-9.186394684242092	1452867
1453149	AI	autonomous development of social referencing skills	2010	5.213275632193793	-7.990701867770642	1453176
1453707	Robotics	evaluation and research on interior decoration design of automobile cabins based on intention recognition - taking control panel design for an example	2016	5.595646462249709	-8.65081153269947	1453734
1453796	Graphics	ooads: an object-oriented design model for advertising cad system	1996	6.182078387455838	-8.92051227409448	1453823
1454879	Robotics	an automation system for industrial 3-d laser digitizing	1999	5.774007481270144	-8.137492411546551	1454906
1455106	Graphics	styling by painting and real time animation of hair using basis-dependent hair strands	2004	5.271923766575236	-9.529793081913317	1455133
1456335	HCI	special section guest editorial: stereoscopic displays and applications	2014	4.8510948148801205	-9.439543014145519	1456362
1457094	ML	distance based illumination as a navigational aid	2010	6.229044609796642	-9.721432368617627	1457121
1458558	HCI	artistic composition for image creation	2001	6.211918877484907	-8.899104220848113	1458585
1458668	Logic	responsive real-time simulation of ground vegetation for games	2009	5.362641428433252	-8.200146710191962	1458695
1459345	AI	using cognition and learning to improve agents' reactions	2002	4.40105692312659	-8.005780339402639	1459372
1459643	Graphics	viewing progress in non-photorealistic rendering through heinlein's lens	2010	5.968117091800737	-9.145381030801314	1459670
1459929	Security	towards automatic personalised content creation for racing games	2007	4.6364577068097885	-8.117534780645812	1459956
1460042	HCI	interactive display of global illumination solutions for non-diffuse environments - a survey	2001	6.207851232238463	-8.182262096726545	1460069
1460182	HCI	towards interactive procedural modelling of buildings	2015	5.79731865012598	-8.946062555933391	1460209
1460575	Graphics	interactive reflection editing	2009	5.854110087794878	-9.801651654168444	1460602
1461042	Vision	the role of action prediction and control in young children's joint action coordination	2013	4.6986394693054985	-9.594901742294745	1461069
1461059	HCI	biophilic evolutionary buildings that restore the experience of animality in the city	2015	4.8927257426801365	-8.165384046343247	1461086
1462495	Graphics	scenario-based 3d objects synthesizing system design	2006	5.741416115743872	-9.203245810827774	1462522
1462621	Robotics	mapping 3d objects to synthesised sound using a simulated physics system	2011	5.53868697250009	-8.708346662694161	1462648
1462860	AI	reusing objects for realistic 3d maps	2008	5.865985730220269	-9.250629040740193	1462887
1463285	Security	using evolutionary learning classifiers to do mobilespam (sms) filtering	2011	5.5000495915753875	-8.505525548903888	1463312
1463701	Visualization	design and implementation of real-time 3d campus scene simulation management system based on vega	2008	6.013187030315187	-8.844937200659079	1463728
1463735	Visualization	hola: human-like orthogonal network layout	2016	6.013835967537628	-8.419348000787835	1463762
1464014	Graphics	technology update: computer graphics software	1988	6.07433993982306	-9.134635143486769	1464041
1464865	Graphics	moving crowds: a linear animation system for crowd simulation	2010	4.720841163897787	-9.796942605288056	1464892
1465762	HCI	color imaging arithmetic: physics ∪ math > physics + math	2011	6.23372526904485	-8.441320138897982	1465789
1465968	Visualization	perceptually optimized 3d graphics	2001	5.797257476502591	-9.174865242510524	1465995
1466090	Graphics	a cave-like environment as a tool for full-size train design	2003	5.659694755506579	-9.717301581921287	1466117
1467967	HCI	studio production system for dynamic 3d content	2003	6.113019598361684	-9.784187626920867	1467994
1468320	Visualization	visualising software as a particle system	2015	5.903628398421876	-8.976257432431117	1468347
1469948	Graphics	from artistry to automation: a structured methodology for procedural content creation	2004	5.64676684741664	-8.965568245423277	1469975
1470097	HCI	automatic route planning for gps art generation	2018	5.381165180940402	-9.118195411860603	1470124
1470970	Visualization	distributed realtime interaction and visualization system	2002	5.554132050240675	-9.688092467481033	1470997
1471155	HCI	failing believably: toward drama management with autonomous actors in interactive narratives	2006	5.2135263037449215	-8.462142578909729	1471182
1471248	Graphics	dressing animated synthetic actors with complex deformable clothes	1992	4.788300549652919	-9.748358408470027	1471275
1471475	Graphics	towards object-oriented modelling of euclidean geometry	1995	5.820729282155162	-8.598574487012504	1471502
1472215	Graphics	production-grade scene translation pipelines	2003	5.864853961765082	-9.183355246227505	1472242
1473291	Graphics	optimo: optimization-guided motion editing for keyframe character animation	2018	5.143613135454237	-9.531863357337178	1473318
1474733	AI	unifying rigid and soft bodies representation: the sulfur physics engine	2014	5.636442693388897	-9.45743180091666	1474760
1475345	Visualization	virtual reality: the design and implementation of the cave	1993	5.438262750019498	-9.755441608659536	1475372
1475493	Graphics	ecologically sound procedural generation of natural environments	2017	6.0516235906300295	-8.329842292886324	1475520
1476469	HCI	"""under the sea: the making of """"finding dory"""""""	2016	5.962143560115927	-8.83684129988448	1476496
1476572	Graphics	weitek solids modeling engine	1984	5.636621376485157	-8.759428397723353	1476599
1477592	Vision	embedding of pixel-based evolutionary algorithms in my global art process	2008	5.37934526076573	-8.34301899769119	1477619
1477872	Graphics	roto++: accelerating professional rotoscoping using shape manifolds	2016	5.4703479047733605	-9.494336821657846	1477899
1478122	AI	results of the first annual human-agent league of the automated negotiating agents competition	2018	4.445765786531706	-8.14000644035829	1478149
1478245	Visualization	parallel visualization of the sloan digital sky survey dr6	2008	5.58520883704077	-8.945692956610287	1478272
1478427	Graphics	the jungle book: management, caching and preview of many animals	2016	5.693809084901154	-9.31441268553707	1478454
1478534	DB	challenges and perspectives of procedural modelling and effects	2010	6.0481275198786655	-8.184406052516191	1478561
1478898	Graphics	autocomplete 3d sculpting	2018	5.960543989307517	-9.709190419703269	1478925
1479616	Visualization	vsim: real-time visualization of 3d digital humanities content for education and collaboration	2011	6.282723903670843	-9.114452814505274	1479643
1479683	AI	game engines to model mas: a research roadmap	2016	4.7219792524275785	-8.554636051452189	1479710
1480591	AI	painterly caricature maker	2009	5.592369956381162	-9.302187735274464	1480618
1482043	Graphics	automod tutorial	1997	4.80514165139746	-9.200618149314725	1482070
1482143	HCI	ephemeral architectures: the body and landscape in augmented reality	2004	5.969084101068357	-9.747159051887813	1482170
1482303	Graphics	sisley the abstract painter	2010	5.870429524370277	-9.527753180364195	1482330
1482705	Graphics	depicting stylized materials with vector shade trees	2013	5.527981815504632	-9.40716722548681	1482732
1482927	Visualization	a model for smooth viewing and navigation of large 2d information spaces	2004	5.969181517210558	-9.229525112285858	1482954
1483088	HCI	gollygee blocks™: a 3d modeler for children	2002	5.88198574502817	-9.294849053641505	1483115
1484293	Graphics	intelligent characters in virtual environment	2009	4.8136068776034096	-9.008121992938406	1484320
1484438	Graphics	proceduralization for editing 3d architectural models	2016	5.879397110957749	-8.395406931181036	1484465
1485483	Robotics	research on a coal mine virtual system using unreal engine	2013	5.227333414614418	-8.649642111197101	1485510
1485704	HCI	interactive shape perturbation	2017	6.22518251714573	-8.571230838697678	1485731
1485815	Vision	customizing urban pattern through an agent-based approach	2014	5.105637669018007	-8.243631572119968	1485842
1485910	Vision	automatic 3d modeling of textured cultural heritage objects	2004	5.956410126344634	-8.502398771086233	1485937
1486706	HCI	sketch it, make it: sketching precise drawings for laser cutting	2012	5.711482181357336	-9.441762255520961	1486733
1486859	Graphics	"""procedural building destruction for """"the day after tomorrow"""""""	2004	5.840288732449518	-8.970066743595076	1486886
1487647	Visualization	metropolis: multisensory simulation of a populated city	2011	5.1468090194477485	-8.9581958632269	1487674
1488257	Web+IR	ai-rpg toolkit: towards a deep model implementation for improvisational virtual drama	2007	5.895186292956418	-8.287280955223379	1488284
1489363	Robotics	analysis and reconstruction of the tiling of alcazar in seville using computer vision tools	2005	6.215975277612794	-8.631574886861456	1489390
1489807	HPC	visualization in biomedical computing	1999	5.820961219753416	-8.465863754041871	1489834
1490039	HCI	generating multi-style paper pop-up designs using 3d primitive fitting	2013	5.511051752042637	-9.521563691228426	1490066
1490511	ML	towards a domain specific language for a scene graph based robotic world model	2013	6.227548225544162	-8.205245688508974	1490538
1491469	HCI	efficient in-situ creation of augmented reality tutorials	2018	6.087146505032068	-9.619800780814318	1491496
1493656	Visualization	blendervr: open-source framework for interactive and immersive vr	2015	6.277427649669523	-9.518265574035905	1493683
1495510	Graphics	gpu texture level of abstraction in 3d scenes	2012	5.872924960015442	-8.335186430581349	1495537
1495589	AI	the mood and memory of believable adaptable socially intelligent characters	2008	5.222587484611815	-7.94365422605691	1495616
1495810	Vision	bayesian imitation of human behavior in interactive computer games	2006	4.649412020496603	-8.343369774909023	1495837
1496007	AI	framework for enabling scalable learning game ai	2013	4.735468920805927	-8.09719853110397	1496034
1496586	Graphics	artificial evolution for computer graphics	1991	5.31835872317633	-8.477230160869121	1496613
1497341	Vision	spatial reasoning for the automatic recognition of machinable features in solid models	1993	5.769131025211671	-8.63961264635175	1497368
1497894	Graphics	integrating dynamic and geometry model components through ontology-based inference	2005	5.886790578318392	-8.753041264108905	1497921
1498540	AI	an affective anticipatory agent architecture	2011	4.636076224557316	-8.166264103486986	1498567
1498999	Robotics	computer simulation tool for rhinoplasty planning	2004	5.615019041061228	-9.54020910250008	1499026
1499285	Vision	object-based sound synthesis	2001	5.832620267942724	-9.659084021246924	1499312
1499531	HPC	interaction in virtual world views-linking 3d gis with vr	1999	6.223430731383235	-9.066959137269356	1499558
1499539	HCI	neural network-based detection of virtual environment anomalies	2012	6.074785841593652	-9.054305135138053	1499566
1499903	Visualization	enabling closed-source applications for virtual reality via opengl intercept-based techniques	2014	6.296041482222444	-9.793181227304334	1499930
1499957	Graphics	hair motion re-modeling from cartoon animation sequence	2006	5.567681897156905	-9.50403483171496	1499984
1500379	Web+IR	l-system based interactive and lightweight web3d tree modeling	2011	6.118054084766888	-8.588706145398548	1500406
1500443	AI	ludic aspects of the generative audiovisual narrative system	2008	5.991542357681759	-8.128405614720327	1500470
1500754	Graphics	hierarchic modeling of symmetric geometries	2007	6.270482153879166	-8.477716652677769	1500781
1500903	Graphics	automatically generating virtual humans using evolutionary algorithms	2009	5.3038505219629455	-8.596866159100882	1500930
1501061	Graphics	the visualisation and expression of virtual 3dsurfaces explored through custom developed interactive software, optically mixed coloured surface contouring and fine art printmaking	2003	5.870240857681612	-9.198434746482329	1501088
1502480	Graphics	the digital michelangelo project: 3d scanning of large statues	2000	6.145108650854157	-8.310084093500523	1502507
1502536	Robotics	proximity: emergent interaction design for co-constructed improvisational performance	2013	5.417290652255385	-8.521969821027428	1502563
1503164	Robotics	getting the right tools for the job: preparatory system configuration and active replanning in cardiac surgery	2003	4.6394074114718205	-8.64377275367501	1503191
1503872	AI	narrative generation through characters' point of view	2010	5.411669675042042	-8.190907528967763	1503899
1504054	Graphics	towards a flexible back-end for scenegraph-based rendering systems	2006	6.278350563442407	-8.825768378867823	1504081
1504237	EDA	an object-oriented approach for mechanical components design and visualization	2011	5.744089693283678	-8.021902506803006	1504264
1504601	NLP	knowledge-based representation of cinematic expression and its application to animation	2002	6.108148819915183	-8.367156598541355	1504628
1505556	Robotics	establishing human personality metrics for adaptable robots during learning tasks	2014	4.5964603925990035	-8.883630246369213	1505583
1505575	Graphics	"""thermasilk """"sorceress"""""""	2002	5.749950626047865	-9.153905136764251	1505602
1507535	Graphics	abstract muscle action procedures for human face animation	1988	6.1398004854383395	-9.793605439872438	1507562
1507932	HCI	evolutionary and biologically inspired music, sound, art and design	2012	5.790321062031242	-9.185627685304292	1507959
1509150	NLP	using eye-tracking data for automatic film comic creation	2012	5.951136755853275	-9.617341188134484	1509177
1510667	HCI	mediaflies - an interactive flocking based tool for the remixing of media	2006	5.199174913268081	-8.35809277426238	1510694
1511368	Visualization	3d video representation and design for ubiquitous environments	2013	5.6151985285265535	-9.533912571686274	1511395
1512252	Visualization	distributed physical based simulations for large vr applications	2006	6.040470001578998	-9.297363056672893	1512279
1512464	Graphics	creation of a noh mask using a 3d computer graphics technique	2000	5.716424955373216	-9.595378313934313	1512491
1512495	HCI	a demonstration of scriptease motivational ambient and latent behaviors for computer rpgs	2007	5.9853772212500616	-9.005872519815197	1512522
1513751	HCI	digital and handcrafting processes applied to sound-studies of archaeological bone flutes	2016	5.7546501930479526	-8.733965565298721	1513778
1515595	Vision	example-based video editing. (édition de video basée-exemple)	2016	6.2124952923208445	-8.674719362134294	1515622
1516048	Graphics	cartoon motion blur for 3d animation	2006	5.640934735966503	-9.44917459221494	1516075
1516474	Visualization	w pleasure, w fun	1998	5.6214947727317055	-9.791557855714007	1516501
1516498	AI	responsive social agents - feedback-sensitive behavior generation for social interactions	2016	4.812724734697313	-8.29942071041021	1516525
1517402	SE	integrating cad with abaqus: a practical isogeometric analysis software platform for industrial applications	2017	5.619836987168901	-8.236760940836598	1517429
1517786	HCI	3d printing prototypes for healthcare professionals: creating a reciprocating syringe	2017	5.203756038140948	-9.523171484111062	1517813
1517792	Robotics	human-robot interaction through spoken language dialogue	2000	4.495142855639212	-9.484209635360932	1517819
1518359	AI	an alternative suggestion for vision-language integration in intelligent agents	2006	4.616215701189809	-8.76373097549048	1518386
1518515	Visualization	a framework supporting general object interactions for dynamic virtual worlds	2004	5.743635474056357	-8.858789863312994	1518542
1518665	Vision	using a real-time web-based pattern recognition system to search for component patterns database	2002	4.742601416535195	-8.722371264957093	1518692
1518672	Arch	modeling origami and beyond	2007	6.134829513157176	-8.514073686412353	1518699
1519280	Robotics	user's access to the robotic e-learning system - syrotek	2012	4.457847954703265	-9.660093589071877	1519307
1519389	Visualization	fluid flow visualization	1991	6.3033294285204295	-8.24048647682194	1519416
1519623	Visualization	c3: a scalable networked virtual reality system	1999	5.897529487002747	-9.707338606345242	1519650
1519698	NLP	learning a representation of a believable virtual character's environment with an imitation algorithm	2010	4.683184206224307	-8.903631287912502	1519725
1520345	HCI	"""computer-generated environments and digital matte work for the films """"casino"""" and """"dunston checks in"""""""	1996	5.823754837920284	-9.021583673243985	1520372
1520710	Graphics	raster graphics	1985	5.565456825640309	-9.044380912296369	1520737
1520987	HCI	prototyping virtual reality serious games for building earthquake preparedness: the auckland city hospital case study	2018	4.7014029286423495	-9.201689734492245	1521014
1521593	HCI	representation of interwoven surfaces in 2 1/2 d drawing	2006	6.225562323970939	-8.703570127959901	1521620
1523530	AI	social lane-based cognitive model for simulating pedestrian flow in games	2013	4.551198324674914	-8.572544377690258	1523557
1523924	Visualization	a window on shared virtual environments	1995	6.056266791715349	-8.984585497045707	1523951
1524244	Visualization	a scalable cluster-rendering architecture for immersive virtual environments	2016	5.962585381792537	-9.107957006578458	1524271
1525164	Embedded	an open-source realtime computational platform (short wip paper)	2018	4.553729813638298	-9.7332234011235	1525191
1525814	Graphics	the role of hand-drawn animation in disney's moana	2017	5.853411765102979	-9.318027133658584	1525841
1527098	HCI	data unification on a dataflow visual language for vjing	2011	6.2050957501912025	-9.530096399463037	1527125
1528291	Robotics	development of a web platform for on-line robotics learning workshops using real robots	2015	4.502127486630047	-9.727703295700515	1528318
1528459	Visualization	virtual reconstruction and representation of an archaeological terracotta statue	2015	6.0379179716421145	-8.357454019345816	1528486
1528549	AI	evolution and collective intelligence of the electric sheep	2008	5.546585642179922	-8.761399815835713	1528576
1529219	Vision	interactive evolutionary system for synthesizing facial caricature with non-planar expression	2014	5.402646060438318	-8.858502469056788	1529246
1530349	Vision	evolution of a fictional dialogue	2011	5.27607259774816	-8.335487016607344	1530376
1530971	Graphics	expressive animated character sequences using knowledge-based painterly rendering	2011	5.850254687243143	-9.630797588005123	1530998
1531168	Graphics	using a combination of micro-computed tomography, cad and 3d printing techniques to reconstruct incomplete 19th-century cantonese chess pieces	2014	5.932535740441468	-8.469097062603815	1531195
1531397	HCI	a proposed modification to the absolute coordinates of logo	1984	5.2362042388863514	-9.29518845160884	1531424
1531860	Graphics	3d scanning the minerva of arezzo	2001	6.0847658055086775	-8.238902222105613	1531887
1531917	Graphics	realistic autonomous fish for virtual reality	2003	5.323199578492868	-8.982564284528634	1531944
1532770	AI	towards smart robots: rock-paper-scissors gaming versus human players	2013	4.429582683007113	-8.253476105489826	1532797
1533796	Graphics	graphics for serious games: infinitex: an interactive editing system for the production of large texture data sets	2010	5.840280685834575	-9.21157956503622	1533823
1534033	Graphics	computer graphics with opengl (3. ed.)	2004	6.0050828712817275	-8.496434597197283	1534060
1534349	AI	moviegene: evolutionary video production based on genetic algorithms and cinematic properties	2006	5.412590463158647	-8.387068634027232	1534376
1534411	HCI	layerpaint: a multi-layer interactive 3d painting interface	2010	5.485165330952537	-9.642353171769868	1534438
1534864	EDA	a desktop virtual reality-based interactive modular fixture configuration design system	2010	5.636623024015503	-9.67209119187411	1534891
1536542	AI	pictures are perceived; symbols are also recognized: representation at the intersection of perception and material in is design	2012	5.299025335635924	-8.489075695740295	1536569
1536625	Visualization	integrated method of analysis, visualization, and hardware for ship motion simulation	2018	4.992749697859266	-9.497323523503438	1536652
1536958	Graphics	creating adaptive and individual personalities in many characters without hand-crafting behaviors	2006	5.105727702230931	-8.964048959476909	1536985
1537264	AI	toward minimally social behavior: social psychology meets evolutionary robotics	2009	4.859785718566122	-8.352713414520828	1537291
1537267	AI	emotions for strategic real-time systems.	2008	4.5333244969520665	-8.343284815750946	1537294
1537362	Vision	battlefield recognition of armored vehicles	1995	4.478642601512722	-9.48179356920847	1537389
1537623	AI	emotional disorders in autonomous agents?	1999	4.405609780395587	-7.897100246310733	1537650
1538896	EDA	unconstrained paving and plastering: progress update	2006	5.372324946623677	-8.390129252123224	1538923
1538992	HCI	a story without end: writing the residual into descriptive infrastructure	2014	6.1563856034994116	-9.786102088139627	1539019
1539260	HCI	interactive creation of chinese calligraphy with the application in calligraphy education	2011	5.738248362247536	-9.692525694831417	1539287
1539722	Robotics	robot transparency: improving understanding of intelligent behaviour for designers and users	2017	4.6629526601212135	-9.45086678014509	1539749
1540094	Robotics	automod by autosimulations	1998	4.8182961014334404	-9.192084510301887	1540121
1540109	Robotics	creating open source repository of 3d models of laboratory equipments using blender	2010	5.832177133574108	-9.371811634628235	1540136
1540402	Embedded	implementation of simulation platform for craniofacial surgery based on com	2008	5.522857128172363	-9.104025229281683	1540429
1541091	AI	believable npcs in serious games: htn planning approach based on visual perception	2014	4.6555910425727935	-8.574263315886006	1541118
1541238	Robotics	recognition of folding process from origami drill books	2003	4.509988555939616	-9.666034070721665	1541265
1543140	Robotics	an inspection system to master dimensional and technological variability of fashion-related products	2016	5.891904432152562	-8.153193651742441	1543167
1543379	HCI	experimental studies of the interaction between people and virtual humans with a focus on social anxiety	2010	4.9773697194649325	-9.801569122262142	1543406
1543393	EDA	new interactive-generative design system: hybrid of shape grammar and evolutionary design - an application of jewelry design	2015	6.070138421832187	-8.917000382344863	1543420
1543674	Visualization	creating realistic scenes in future multimedia systems	2002	5.715141020990832	-9.36949470733659	1543701
1545368	Graphics	interactively evolving virtual environment maps with continuous layered pattern functions	2002	5.4312145771374265	-8.678710402965418	1545395
1545415	AI	motivated reinforcement learning for adaptive characters in open-ended simulation games	2007	4.535690386166894	-8.178063994506555	1545442
1547010	Visualization	lightpainter: creating long-exposure imagery from videos	2018	6.185243756361839	-9.427017116763256	1547037
1547242	Graphics	modeling with time and events in computer animation	1992	5.233046010267149	-9.089650986550463	1547269
1547706	AI	empirically building and evaluating a probabilistic model of user affect	2009	5.062625395006863	-8.376980622667434	1547733
1547799	Vision	the impact of paper on ink: from the photomechanical printer's perspective.	2001	5.718126241517867	-8.908394684549174	1547826
1548770	Graphics	v-collide: accelerated collision detection for vrml	1997	6.028295836788859	-8.931965261641011	1548797
1550097	HCI	oh gosh!! why is this game so hard? identifying cycle patterns in 2d platform games using provenance data	2017	5.860626023653808	-8.239357582888234	1550124
1550683	Robotics	developing a human behavior simulation system based on geometry affordance	2018	5.096861137587696	-9.032639686360904	1550710
1550795	Visualization	multi-functional visualization system for structure analysis	1997	5.777528607871401	-8.979723103571773	1550822
1550933	Graphics	realbrush: painting with examples of physical media	2013	5.350143515369583	-9.552610292732677	1550960
1551425	Robotics	photorealistic 3d modelling applied to cultural heritage	2007	6.122944176534988	-8.434748585490539	1551452
1552294	Robotics	a rough set approach to extract painting composition rules	2009	5.8686299624494325	-9.156162508569073	1552321
1552847	Graphics	low-cost real-time 3d reconstruction of large-scale excavation sites	2015	5.0321519693981305	-8.844543973227319	1552874
1553339	Visualization	an approach for 3d visualization of pipelines	2006	5.775670446193643	-8.983848063547052	1553366
1553967	Visualization	the graphics demands of virtual medicine	1996	6.142587617414626	-9.126504983503716	1553994
1553970	Visualization	the evolution of three dimensional visualization for commanding the mars rovers	2014	4.3798120639705385	-9.40609917248286	1553997
1554189	AI	an evolved neural network/hc hybrid for tablature creation in ga-based guitar arranging	2006	5.2405834614807265	-8.573572540061816	1554216
1554262	Logic	authoring behaviour for characters in games reusing abstracted plan traces	2009	5.412308631929382	-8.464150354457374	1554289
1554419	Graphics	"""previsualization for """"starship troopers"""" managing complexity in motion control"""	1998	5.6081134911138	-9.44521603806133	1554446
1555016	Visualization	spatial relationships: a framework for understanding the relationships between real and virtual spaces	2010	6.162805695210213	-8.944997169824614	1555043
1555166	Visualization	projection plane processing for sketch-based volume segmentation	2008	5.5925916267326565	-9.292011537861429	1555193
1555204	HCI	a fuzzy expert system for goalkeeper quality recognition	2013	4.483456377549658	-7.962121765054023	1555231
1555850	Graphics	computer-aided design for a reader of hand-printed characters	1969	5.871834396068379	-8.246351967531426	1555877
1556641	Vision	a software platform for manipulating the camera imaging pipeline	2016	5.0926719170142265	-9.232859459646694	1556668
1556657	Graphics	a realtime immersive application with realistic lighting: the parthenon	2006	5.82965757154163	-9.555071218653307	1556684
1556926	HCI	self-organizing cognitive models for virtual agents	2013	4.678611198906385	-8.581345202846382	1556953
1557714	HCI	computer generation of harmonic equihue color scales	1995	6.192615495927032	-8.838728689174816	1557741
1558135	Robotics	decision-theoretic human-robot interaction: designing reasonable and rational robot behavior	2016	4.619994605490941	-8.621417237301277	1558162
1558450	Graphics	toward greater artistic control for interactive evolution of images and animation	2007	5.639179764195477	-8.638693166301433	1558477
1558852	Robotics	introducing design intent in discrete surface modelling	2005	6.183900333449945	-8.734679138535544	1558879
1558950	AI	an action selection architecture for an emotional agent	2003	4.547944130267548	-8.134342556936371	1558977
1559375	Web+IR	multi-regression analysis of music impressions for music evaluation.	2010	5.837993489333799	-8.893091293895463	1559402
1559822	Graphics	survey and evaluation of mpeg-4 based 3d character animation frameworks	2013	6.236301586065657	-9.692110627540766	1559849
1559973	HCI	location-based team recommendation in computer gaming scenarios	2011	5.049249379017429	-8.278605448634385	1560000
1561029	AI	time series and case-based reasoning for an intelligent tetris game	2017	4.637398417660234	-8.200762882761323	1561056
1561127	Graphics	interactive manipulation of large-scale crowd animation	2014	4.700718820661748	-9.793548974372653	1561154
1561361	AI	designing bots with bdi agents	2009	4.445501803010496	-8.170824872773316	1561388
1561380	HCI	distortion techniques for sketching interaction	2011	5.937410134900051	-9.725451520427539	1561407
1562587	Graphics	visualising ancient architecture using animated line drawings	1998	5.983670791239367	-9.159316264012325	1562614
1562914	AI	looking ahead to select tutorial actions: a decision-theoretic approach	2004	4.639577558637379	-8.132827983017293	1562941
1563186	Visualization	a short recipe for seashell synthesis	1989	6.130144746962223	-8.75954687079712	1563213
1563775	AI	the emergence engine: a behavior based agent development environment for artists	2000	5.061093022200988	-8.736467376388191	1563802
1564020	AI	procedural content generation using patterns as objectives	2014	5.335405850297677	-8.168338300034442	1564047
1564709	HCI	ant colony simulation as an engaging, extendable, and easily gradable programming project(abstract only)	2013	4.901313063034485	-8.30472574585997	1564736
1565424	Graphics	"""shader compositing on """"stealth"""""""	2005	5.778635731880294	-9.071550745485359	1565451
1565627	AI	framer: planning models from natural language action descriptions	2017	4.7478845315246705	-8.190821500206772	1565654
1565782	HCI	addressing the challenges of aerospace and defense initiatives using software analysis tools	2002	5.462702907258259	-8.525160231980449	1565809
1567669	Graphics	a study on the real-time toon rendering for 3d geometry model	2001	5.659180162631367	-9.353952823842972	1567696
1568008	Graphics	generation of adaptive dilemma-based interactive narratives	2008	5.331150964295123	-8.283807701019073	1568035
1568799	AI	monte-carlo tree search for implementation of dynamic difficulty adjustment fighting game ais having believable behaviors	2018	4.4083763237511855	-8.091978797390507	1568826
1568833	Visualization	partitioning of distributed virtual environments based on objects' attributes	2007	6.214861806983946	-9.009157932998503	1568860
1569979	Arch	implementing pictorial interfaces using a high resolution digitizer	1985	6.152826570880529	-9.569503255612736	1570006
1570539	HCI	a distributed camera library design for telepresence	2013	6.201883884090179	-8.727536791543761	1570566
1570737	AI	schemas in directed emergent drama	2008	5.779898706586385	-7.99177142558514	1570764
1572418	HCI	agents-supported adaptive group awareness: smart distance and wwwaware	2001	4.8400341631336685	-8.043158714664752	1572445
1572615	AI	extended hierarchical task network planning for interactive comedy	2003	5.8855096116622185	-9.09076172060054	1572642
1574513	AI	a transparent and decentralized model of perception and action for intelligent virtual agents	2014	4.550246222605296	-8.780380484969516	1574540
1575258	Graphics	sketch-based 3d modeling by aligning outlines of an image	2016	5.652415834104541	-9.31349047252951	1575285
1575851	HCI	progress in cultural heritage preservation	2012	6.2814096779456605	-8.11809293949125	1575878
1576264	EDA	comparison of kemomi technique between master craftsman and unskilled worker	2015	5.965604315936709	-9.099942304360367	1576291
1576267	EDA	using genetic algorithm to aesthetic patterns design	2016	5.739831469093999	-8.22329133986219	1576294
1577888	Graphics	realistic virtual environments navigable over the www	2007	6.079096078133932	-9.433192564061669	1577915
1578409	AI	agent-based computer-generated-forces' behaviour improvement	2011	4.5001344269312105	-8.154661071531349	1578436
1578699	Arch	realizing the compute potential of the mobile gpu	2014	6.214572916559223	-9.480569647431656	1578726
1581801	Graphics	computer aided design of sculptured surfaces	1975	5.884122450835985	-8.783367521628431	1581828
1582086	ML	face processing: advanced modeling and methods	2006	5.743594340941222	-8.570975700470875	1582113
1582145	HPC	conflict resolution in a virtual environment: exploiting the affordances of a mulit-object oriented environment	1999	4.678865403049686	-9.05507511013649	1582172
1582874	Visualization	computer simulation and generation of moving sand pictures	2018	5.665074341883682	-9.137217164401275	1582901
1583585	AI	learning to sketch human facial portraits using personal styles by case-based reasoning	2017	5.325500434988532	-8.99667249106708	1583612
1585280	AI	ai opponents with personality traits in überpong	2008	4.999111088082031	-8.883203042508857	1585307
1585658	AI	towards deception detection in a language-driven game	2017	5.0521211820444565	-7.983401136660718	1585685
1585890	NLP	adaptive generation of dilemma-based interactive narratives	2007	5.3888814863614805	-8.336831122932129	1585917
1586317	Graphics	virtual hair handle: a model for haptic hairstyling	2008	5.278225798749414	-9.622687530477892	1586344
1586682	SE	an initial study to assess the perceived realism of agent crowd behaviour in a virtual city	2013	5.029608114519292	-8.790413149561754	1586709
1587626	HCI	vr color grading using key views	2018	5.506690805362526	-9.534935926727151	1587653
1587860	Robotics	systems overview of ono - a diy reproducible open source social robot.	2013	4.782429325840896	-9.590151152656633	1587887
1589157	Graphics	the coralize tool for creating underwater environments	2015	6.0382393054483074	-9.023454806835208	1589184
1589209	Graphics	chemical ideograms and molecular computer graphics	1985	5.323795760729329	-8.39811829830883	1589236
1589471	DB	a social-psychological model for synthetic actors	1998	5.129371196248568	-8.737125331081744	1589498
1589960	Graphics	high dynamic range rendering in valve's source engine	2006	5.809138231280388	-8.870741014106594	1589987
1589980	AI	calibration and viewpoint consistent modelling of btf data	2007	5.516079275045363	-9.422983055867645	1590007
1590286	EDA	identifying designs from incomplete, fragmented cultural heritage objects by curve-pattern matching	2017	6.274590227736951	-7.921372007304821	1590313
1590344	Visualization	virtual immersion: simulating immersive experiences in vr	2018	6.237580025816263	-9.527735448203954	1590371
1591327	Graphics	real-time animation of underbrushes	2003	5.5655215026929294	-9.020811004001992	1591354
1591379	HCI	abiba: an agent-based computing system for behaviour analysis used in human-agent interaction	2018	5.218345623292159	-7.975163607646872	1591406
1591741	Graphics	scientific applications: brad: the brookhaven raster display	1968	5.489430425240749	-9.276821432591404	1591768
1591780	Graphics	dynamically simulated characters in virtual environments	1997	4.3927337836664	-9.175830364718744	1591807
1591808	ML	intuitive statistics: identifying children's data comparison strategies using eye tracking	2014	4.9787336886778215	-7.978191893237339	1591835
1591994	AI	numerical-symbolic matlab toolbox for computer graphics and differential geometry	2005	6.066395280158786	-8.117501157702891	1592021
1592416	Visualization	rule and reuse based lightweight modeling and real time web3d rendering of forest scenes	2018	6.297793388033459	-8.286396616114661	1592443
1592502	Vision	a virtual vision simulator for camera networks research	2012	4.866680833929621	-9.731964796048494	1592529
1592712	AI	believable character reasoning and a measure of self-confidence for autonomous team actors.	2015	4.9470390195044045	-8.058689869137075	1592739
1592834	Visualization	visualizing the ground motions of the 1906 san francisco earthquake	2008	6.234356646225307	-8.099861430803031	1592861
1593419	Networks	a data-efficient collaborative modelling method using websockets and the blobtree for over-the air networks	2013	6.092559497383661	-8.878890730276584	1593446
1593520	Graphics	rapid part-based 3d modeling	2005	5.840270651713648	-9.294275966214744	1593547
1593720	DB	cognitive maps in virtual environments: facilitation of learning through the use of innate spatial abilities	2001	5.7426710306615245	-8.525884078577526	1593747
1594620	Robotics	poster: characterizing driving behaviors through a car simulation platform	2017	4.5113952957324965	-9.16746459024484	1594647
1595737	ML	photogrowth: non-photorealistic renderings through ant paintings	2012	5.522773192785815	-8.621765265458627	1595764
1595866	HCI	heritage pieces integration in autonomous augmented reality systems: key problems and solutions	2008	5.325543716722909	-9.7291910988325	1595893
1596062	AI	web-based search system of pattern recognition for the pattern of industrial component by an innovative technology	2004	4.772378114313868	-8.656409914521452	1596089
1596985	Graphics	teaching tennis in virtual environment	2002	6.2573449990920285	-9.550589858786186	1597012
1597946	HCI	towards a bdi player model for interactive narratives	2016	5.228042213621598	-8.210821534515771	1597973
1598015	AI	design and implementation of agent interaction mechanisms for emotionally intelligent tutoring systems	2012	5.082123266564298	-8.092585117703907	1598042
1598183	AI	a language for human action	2007	4.989256135294078	-7.993140598299765	1598210
1598890	Visualization	saliency detection-based mixture of reality and non-photorealistic rendering effects for artistic visualization	2013	5.5849334526052665	-9.014781982127957	1598917
1599546	AI	automated agents for advice provision	2015	4.438340585251657	-8.728896692195343	1599573
1600189	Visualization	vfire: virtual fire in realistic environments	2005	6.1292478540251665	-8.964134888518258	1600216
1600424	HCI	an adaptive cutaway with volume context preservation	2009	5.918840138171563	-9.544451933391564	1600451
1600583	Vision	3-d cinematography with approximate or no geometry	2010	4.927237381371504	-9.626369370858027	1600610
1602040	PL	an agent-based architecture for multimodal interaction	2001	5.107271517317709	-8.493612733638313	1602067
1602213	Visualization	stained-glass visualization for highly condensed video summaries	2004	6.1625273543265715	-8.691640475914838	1602240
1603039	Robotics	towards a conceptual model of talking to a route planner	2008	4.5848725737439215	-8.663103536128009	1603066
1603122	Robotics	honeycomb: a platform for computational robotic materials	2013	5.217773834959337	-9.662668928938807	1603149
1604582	HCI	absolute field: proposal for a re-configurable spatial structure	2008	6.105440457878776	-9.153398935668342	1604609
1605575	Vision	highly automated image recomposition : the picture you wish you had taken	2007	6.267936395632956	-9.490431153909944	1605602
1606250	Vision	technical perspective: customizing media to displays	2009	5.301600726897722	-9.45828791979007	1606277
1606434	AI	modeling of human behavior in crowds using a cognitive feedback approach	2017	4.956125411866145	-7.908787535851108	1606461
1606591	Visualization	3d modeling and accuracy assessment- a case study of photosynth	2012	5.950300332063378	-8.613014158014249	1606618
1606619	Vision	focus: clustering crowdsourced videos by line-of-sight	2013	6.058954005258538	-9.629286248802213	1606646
1606827	HCI	navigation with learned spatial affordances	2015	4.464559553096146	-9.079083922205372	1606854
1606991	AI	scale-free evolutionary level generation	2018	5.156997942041102	-8.239016224203905	1607018
1608355	Visualization	interactive web based grid geometry construction	2006	6.1645972390209725	-8.733151642677095	1608382
1608827	Visualization	evolved weapons for rpg drop systems	2013	4.564707940848546	-7.920593860960903	1608854
1608995	Robotics	human to robot demonstrations of routine home tasks: exploring the role of the robot's feedback	2008	4.446185181441844	-9.451880940926207	1609022
1609010	Graphics	evolutionary search for the artistic rendering of photographs	2008	5.597281851434857	-8.63275661537708	1609037
1609647	ML	real-time prediction to support decision-making in soccer	2015	4.602254355799177	-7.962759430258763	1609674
1610186	Robotics	dynamic modeling of trust in human-machine interactions	2017	4.7915408299207805	-8.263471013489962	1610213
1610352	Web+IR	mathematical string sculptures: a case study in computationally-enhanced mathematical crafts	2007	5.576813022281848	-9.504212011063306	1610379
1610999	Visualization	visual, spatial and temporal quality in video-based reconstruction of people : achieving, prototyping and evaluating	2014	5.911151893014702	-9.568132347069637	1611026
1611211	Robotics	vs: facial sculpting in the virtual world	2006	5.599068732036493	-9.448060459050858	1611238
1611272	Graphics	generating furniture for augmented reality applications using natural language	2017	6.108511151990927	-9.156298762029369	1611299
1611364	EDA	paper drawings to 3-d cad: a proposed agenda	1993	6.110347705846977	-8.634377655134433	1611391
1611708	Robotics	command agents with human-like decision making strategies	2007	4.388518490853524	-8.253971493058256	1611735
1611944	Graphics	survey of real-time rendering techniques for crowds	2005	5.809100660022267	-9.183413369431394	1611971
1612200	HCI	evolutionary pointillist modules: evolving assemblages of 3d objects	2008	5.680646822184374	-8.768585913301655	1612227
1612362	AI	can you make a computer understand and produce art?	1991	5.320122474441692	-8.31910766310469	1612389
1613462	Robotics	achieving common ground under asymmetric agency and social sentience in communication for human-robot teaming	2012	4.416422975874818	-8.849639928463493	1613489
1613627	Embedded	research and implementation of real-time character control technology	2011	5.153294815575828	-9.025546011517159	1613654
1613722	Robotics	instant mission rehearsal sensor data, gaming provide valued mission rehearsal for ground troops (abstract)	2009	4.383105282237808	-9.273636983264707	1613749
1613744	AI	behavioral development for a humanoid robot - towards life-long human-robot partnerships	2008	4.934697778429706	-8.279345750546355	1613771
1614190	NLP	automated playtesting in collectible card games using evolutionary algorithms: a case study in hearthstone	2018	4.636844689890834	-7.8967715504059806	1614217
1614287	Graphics	variational superformula curves for 2d and 3d graphic arts	2004	6.015454561789667	-9.021418522795232	1614314
1614326	AI	driving-bots with a neuroevolved brain: screaming racers	2005	4.47432123694775	-8.122848558645012	1614353
1614599	Graphics	expressive reproduced characters for games	2014	4.422074027676425	-8.062619687067418	1614626
1614768	Graphics	about the cover: design by points	2004	5.8800136344103215	-8.898437653256398	1614795
1615291	NLP	polynomiography and applications in art, education, and science	2004	6.108027148387348	-8.272349243150838	1615318
1615726	Graphics	fitting virtual lights for non-diffuse walkthroughs	1997	6.0419360345320845	-9.121392341984304	1615753
1618962	HCI	"""does """"virtually being there"""" help? comparing collaborative work between 3d and 2d conditions"""	2011	5.5544165335878875	-9.541161014606342	1618989
1620003	Robotics	behavior-based systems	2016	4.384100748518107	-8.268000516829149	1620030
1620497	Graphics	changing personalities: towards realistic virtual characters	2005	5.258725876622439	-7.91281954473892	1620524
1620533	AI	negotiation over tasks in hybrid human-agent teams for simulation-based training	2003	4.660724454705231	-8.532592240516689	1620560
1620848	NLP	multiagent planning with partially ordered temporal plans	2003	5.083940434763996	-8.237071190735309	1620875
1621538	Vision	camera for the invisible	2008	5.040325635613582	-9.467182500585308	1621565
1621720	PL	agents with personality for videogames	2006	4.934831710668733	-8.3276396062488	1621747
1621918	Vision	from sketches to cam models: perceiving pockets and steps in single-view wireframe sketches of polyhedral shapes	2013	5.565314658966532	-9.495159556142172	1621945
1622026	AI	modular behavior trees: language for fast ai in open-world video games	2014	5.0854745855720305	-8.289936447894455	1622053
1622385	AI	generative design in minecraft (gdmc): settlement generation competition	2018	5.184340566549497	-8.127998092404571	1622412
1623020	HCI	learning via multimedia computers	1993	6.049354961096226	-9.421002646662512	1623047
1623353	HCI	towards an understanding of shapes and types in architecture	2015	5.968312519899442	-8.660930133356395	1623380
1623356	HPC	avatar arena: virtual group-dynamics in multi-character negotiation scenarios	2003	5.093754449094243	-8.247823702144274	1623383
1623903	AI	a procedural procedural level generator generator	2012	5.384892355404193	-8.335250765945625	1623930
1624214	HCI	what 3d api for java should i use and why? (panel)	1997	6.275833179424637	-9.010672686293764	1624241
1625140	Robotics	the planetary simulator for generalized understanding of astronomical phenomena from various viewpoints	2008	5.531581767604757	-8.00613777172903	1625167
1625249	Vision	gpu-based techniques for global illumination effects	2008	6.07056535310578	-8.845544319162633	1625276
1625593	Graphics	artificial life: towards new generation of computer animation	2001	5.006007388990668	-8.212657405135115	1625620
1626080	AI	from observation to interaction	2010	5.017346559493734	-8.467619882154981	1626107
1626296	AI	towards a theory for multiparty proactive communication in agent teams	2007	5.048239243045151	-8.09246953095118	1626323
1626408	Graphics	animating fracture	2000	5.04020540201039	-9.648888259135488	1626435
1628544	HCI	a demonstration of scriptease ambient and pc-interactive behavior generation for computer role-playing games	2006	6.0496640683408085	-8.799302153825746	1628571
1628817	AI	from linear story generation to branching story graphs	2005	5.660102222300688	-8.312091935982139	1628844
1629206	HCI	glowsteps - a decentralized interactive play environment for open-ended play	2013	5.251209515176401	-8.448323632239866	1629233
1629952	Graphics	a comment on galler's letter	1967	5.918138347292117	-9.319952584626614	1629979
1630122	Graphics	digital home applications	2013	5.5314399415941535	-8.842853155564546	1630149
1630146	Graphics	the system design for galatea, an interactive real-time computer graphics system for movie and video analysis	1974	6.068736064921278	-9.128040831139602	1630173
1630587	Graphics	interactive modeling and editing of free-form surfaces from curve networks	2016	5.645916752150595	-9.365718520412885	1630614
1631092	HCI	situation and incident reporting system (sires)	2011	4.947709810043847	-9.337698467595166	1631119
1631985	Graphics	frame skeleton based auto-inbetweening in computer assisted cel animation	2004	5.784429773094982	-9.516240478932687	1632012
1633651	Robotics	rica: a reliable and image configurable arena for cyborg bumblebee based on can bus	2014	4.895852505768402	-9.271975969266645	1633678
1634042	ML	improving the outcome of a probabilistic logic music system generator by using perlin noise	2011	6.099999815000727	-8.543609619567281	1634069
1635028	HCI	p3dma: a physical 3d deformable modelling and animation system	2002	5.131491482068408	-9.706426430416247	1635055
1635985	Graphics	interactive evolutionary 3d fractal modeling	2010	5.400709548847618	-8.482762362284761	1636012
1636209	Robotics	interactive geometric modelling for integrated cad/cam	1985	5.631754304638284	-8.26581943449874	1636236
1637340	Vision	pixels and parchment: the application of rti and infrared imaging to the dead sea scrolls	2011	5.931258359493874	-8.230209162210151	1637367
1637532	Robotics	an implementation of computer vision technique for an edutainment robot with a visual programming language	2013	6.092602704557289	-9.123179047672902	1637559
1637872	Graphics	non-realistic expressive modeling	2006	5.829689000386819	-8.925168781420581	1637899
1637877	HCI	the tomorrow children: lighting and mining with voxels	2015	5.777812692656112	-9.557497680631023	1637904
1638058	HPC	coordinate transformations in distributed interactive simulation (dis)	1993	5.150006987651246	-8.119187030610515	1638085
1638794	Robotics	ontology enhancing process for a situated and curiosity-driven robot	2014	4.640958816098982	-8.550832761174696	1638821
1640077	Robotics	behavior navigation system for harsh environments	2016	4.627896046578977	-9.172900211698003	1640104
1640747	Web+IR	controlling non-player characters using support vector machines	2009	4.454101655336836	-8.181582061008768	1640774
1641059	Graphics	cosmicai: generating sky backgrounds through content-based search and flexible composition	2012	5.790105180410872	-9.311156608304637	1641086
1641135	AI	mixing story and simulation in interactive narrative	2006	5.198542149376225	-8.343003998536412	1641162
1641315	HCI	justdrawit: a 3d sketching system	2012	5.845656868416939	-9.564598662516602	1641342
1641342	Visualization	enhancing x3d for advanced mr appliances	2007	6.2778507808906845	-9.22063904292578	1641369
1642133	Theory	optimum path computation algorithm for real time multimedia applications over computer networks	2008	6.083292553234267	-8.993508413151776	1642160
1642275	HCI	computational support for play testing game sketches	2009	5.221888682557209	-8.425332542128402	1642302
1642785	Logic	producing stylized renderings using the avp rendering tool	2008	5.862556713759885	-8.394302594500196	1642812
1643148	Graphics	interactive modeling system for bridges	1974	5.281060784234978	-9.029228773560963	1643175
1643586	HCI	physink: sketching physical behavior	2013	6.19820650013096	-9.388360122506137	1643613
1644144	HCI	public presentation of japanese historic sites using 3d tiled display wall	2013	6.0383037323255255	-9.734170501079738	1644171
1644700	Visualization	deformation analysis of modified maps based on geographical accuracy and spatial context	2011	4.908185367806054	-9.402619918781092	1644727
1645008	HCI	environmental designs for reading from imaging workstations: ergonomic and architectural features	2002	5.338286058030239	-9.384586416087213	1645035
1646260	HCI	an agent based multicultural tour guide system with nonverbal user interface	2007	5.5574622724574745	-8.085977997331208	1646287
1646443	Visualization	using a declarative language to describe the interactions in virtual scenes	2005	5.719763764158348	-9.55950466663521	1646470
1646660	HCI	evaluation of an augmented-reality-based 3d user interface to enhance the 3d-understanding of molecular chemistry	2013	5.499268529469496	-9.308637579823467	1646687
1646746	Visualization	active visualization in a multidisplay immersive environment	2002	6.0561723947678745	-8.751966347203759	1646773
1647893	AI	reinforcement learning and genetic programming for motion acquisition	2005	4.388393945228722	-8.398819419440928	1647920
1650550	Robotics	modeling optimization of the demonstration vr system based on vrml	2011	5.926785679951771	-9.476500449350144	1650577
1650828	AI	integrating reinforcement learning into a programming language	2010	5.0438175917657455	-8.063729880762258	1650855
1652210	HCI	sky writer: sketch-based collaboration for uav pilots and mission specialists	2014	6.107423797070916	-9.34451295229759	1652237
1652263	HCI	aspects of evolutionary design by computers	1999	5.319406557729508	-7.963840457324076	1652290
1652549	Visualization	towards precise, fast and comfortable immersive polygon mesh modelling: capitalising the results of past research and analysing the needs of professionals	2017	6.1286297427623655	-9.267491927624524	1652576
1652882	HCI	from structure from motion to historical building information modeling: populating a semantic-aware library of architectural elements	2017	6.185380288543695	-7.965342870608745	1652909
1654278	Visualization	sketch interface for 3d modeling of flowers	2004	5.799111441430132	-9.22151854991444	1654305
1654716	AI	serious games for the human behaviour analysis in emergency evacuation scenarios	2017	4.751223959782156	-9.048454133922382	1654743
1655175	Visualization	coco - a framework for multicore visuo-haptics in mixed reality	2016	5.543994920313112	-9.782668896237018	1655202
1655474	Visualization	3d modeling of complex and detailed cultural heritage using multi-resolution data	2009	6.116026041396776	-8.078060530436707	1655501
1656821	Visualization	simulating crowd interactions in virtual environments (doctoral consortium)	2014	5.013839030187916	-9.266735370048204	1656848
1658626	Visualization	crowdvis: a framework for real time crowd visualization	2013	5.609817267895467	-9.253108794798768	1658653
1659223	Graphics	random discrete colour sampling	2012	5.567029683738814	-8.988291343419554	1659250
1659744	Robotics	intelligent real-time music accompaniment for constraint-free improvisation	2012	5.3726192767278365	-8.604013755491215	1659771
1660130	Robotics	virtainer: graphical simulation of a container storage yard with dynamic portal rendering	2005	6.286177231619032	-9.00549220182761	1660157
1660185	AI	building human-level ai for real-time strategy games	2011	4.427424972838927	-8.223768862754014	1660212
1661214	AI	intelligent npcs for educational role play game	2009	5.015965035094133	-8.517790814105716	1661241
1661884	Graphics	a genetic algorithm for the automatic generation of playable guitar tablature	2005	5.465963413610655	-8.622041326531297	1661911
1662182	AI	developing aesthetic computer generated drawings through artificial evolution	2006	5.508100962393779	-8.636603595512296	1662209
1662200	Robotics	simulation of 3d garment based on six pieces of bezier curved surfaces	2008	5.029047558056663	-9.643215509182342	1662227
1662574	Visualization	reconstruction of 3d virtual buildings from 2d architectural floor plans	1998	5.87526805445652	-8.733619895542184	1662601
1662621	EDA	spatial augmented reality support for design of complex physical environments	2011	5.938226732517114	-9.716333229140787	1662648
1663521	Visualization	application of visualization tools in solid mechanics	1991	6.094351281463236	-8.112225817723331	1663548
1664068	Visualization	jape: a prototyping system for collaborative virtual environments	2001	6.1547610740200005	-9.705479717022188	1664095
1664354	HCI	a tutoring system for commercial games	2005	4.646945698111086	-7.910570501079706	1664381
1664426	Robotics	inventory management with an rfid-equipped mobile robot	2007	4.535050217398388	-9.57266616392213	1664453
1664493	Graphics	lightcraft: extract light position and information from on-set photography	2016	5.8204290427636565	-9.255775290732949	1664520
1665597	SE	a cognitive framework for modeling mental space construction and switching during situation assessment	2006	4.751207422850123	-8.258586548202176	1665624
1665822	Visualization	simultaneous evolution of bracketed l-system rules and interpretation	2006	5.252810814959179	-8.483337851688354	1665849
1666031	Visualization	haptic painting	2004	5.807932529340542	-8.901764582486967	1666058
1666272	Visualization	teaching software for structural engineering	1990	5.734101774745531	-8.189181307712643	1666299
1667193	HCI	visualizing the cosmos: a procedural approach	2015	5.859862536489576	-8.670248739819604	1667220
1668469	AI	applying case-based reasoning in social computing to transform colors into music	2018	5.4273895250867366	-7.946589220070404	1668496
1668509	Visualization	the virtual sandbox	2007	5.4652457111045125	-8.489694516086592	1668536
1668580	AI	aesthetic terrain programs database for creativity assessment	2012	5.412499897392029	-8.459132727261164	1668607
1669374	Robotics	role-based coordinating communication for effective human-robot task collaborations	2013	4.620594943011875	-8.560638687179855	1669401
1669466	HCI	repentir: digital exploration beneath the surface of an oil painting	2013	5.773692746841182	-9.740956426196842	1669493
1669762	Robotics	the design and implementation of a real-time walkthrough system supporting cooperative manipulation	2001	5.449180830837455	-8.920969422878066	1669789
1669796	EDA	design and realization of equipment training simulator	2010	4.894879069286008	-9.038402252991576	1669823
1670531	Graphics	shakespearean spatial rules	2013	5.737662378263428	-9.374459338528863	1670558
1670638	Graphics	evolution of l-systems for compact virtual landscape generation	2005	5.3807418343865585	-8.599427996953192	1670665
1670711	Vision	3d reconstruction from 3d cultural heritage models	2014	5.980484865476829	-8.511904656266339	1670738
1670948	Graphics	ai supported computer-generated pen-and-ink illustration	2001	5.994409635019728	-9.196450692950721	1670975
1671331	Robotics	strokes for drawings using illuminated paper surfaces	2004	5.926097144628608	-8.377104601209696	1671358
1671762	Visualization	more origami solids	1996	5.905452802536076	-9.054637642034649	1671789
1672078	Robotics	embodying models of expressive behaviour and learning with a biomimetic virtual infant	2014	4.5560192131997725	-9.709011649701	1672105
1674059	Robotics	analysis of empirical results on argumentation-based dialogue to support shared decision making in a human-robot team	2016	4.472325221068135	-8.642167273603885	1674086
1674518	Mobile	possibilities for development and use of 3d applications on the android platform	2016	6.25981464513383	-8.988110213248104	1674545
1675432	HCI	evaluating directorial control in a character-centric interactive narrative framework	2010	5.929821626292753	-7.943844591254612	1675459
1675828	Graphics	interactive painterly rendering with artistic error correction	2011	5.807121015186017	-9.281475994614759	1675855
1675964	NLP	a generic spoken dialogue manager applied to an interactive 2d game	2008	4.770442403564941	-8.784805223671205	1675991
1676475	Robotics	demonstrating crowdinside: a system for the automatic construction of indoor floor-plans	2013	6.2519072966963405	-8.10576637301879	1676502
1676828	AI	integrated dynamical intelligence for interactive embodied agents	2011	4.6494862864850495	-8.72640900032399	1676855
1677201	Graphics	adaptive crowd behaviour to aid real-time rendering of a cultural heritage environment	2004	5.547526209852848	-9.222497837327682	1677228
1677539	AI	successive developmental levels of autobiographical memory for learning through social interaction	2014	4.387959650602396	-8.393571479061402	1677566
1678361	HCI	uniform access to the cameraverse	2010	5.426045631051264	-9.649839254216275	1678388
1678794	Visualization	a roadmap for autostereoscopic multi-viewer domestic tv displays	2006	6.137514704393588	-9.658307526946777	1678821
1679081	Visualization	enabling multipurpose image interaction in modular visualization environments	2003	6.262169649948009	-8.928255289731474	1679108
1679272	Logic	pencil drawing rendering based on example texture	2017	6.215541180123851	-8.197545973622287	1679299
1679458	Visualization	magictoon: a 2d-to-3d creative cartoon modeling system with mobile ar	2017	5.834156335591425	-9.735542954427483	1679485
1679834	NLP	evolution of lace knitting stitch patterns by genetic programming	2007	5.408851427773172	-8.459361351614842	1679861
1680431	Graphics	chinese calligraphy specific style rendering system	2010	5.661259677539098	-9.611095040162546	1680458
1680506	HCI	assessing collaboration between autistic players: an engagement metric	2017	4.521398802701572	-8.60840386371522	1680533
1681467	AI	unplugging evolutionary algorithms: an experiment on human-algorithmic creativity	2014	5.434606225370631	-8.038500674658184	1681494
1682382	HCI	generating ambient behaviors in computer role-playing games	2005	6.215357776505742	-8.827326220299724	1682409
1682726	Robotics	a dynamics simulation architecture for robotic systems	2005	4.66598362145215	-8.62509262324159	1682753
1682853	AI	evolutionary composition using music theory and charts	2013	5.389081531180072	-8.472344219615152	1682880
1683007	Visualization	immersive virtual reality environment of a subway evacuation on a cloud for disaster preparedness and response training	2014	4.619465828264465	-9.444423542837116	1683034
1683671	HCI	adapting game mechanics with micro-machinations	2014	5.471605051971606	-8.2908036163176	1683698
1684301	ML	three-dimensional spatio-temporal modeling of geophysical events and the movement of celestial bodies	2012	6.188307573541078	-7.8935833492664464	1684328
1684915	Vision	large scale shape reconstruction from urban point clouds	2013	5.264364977830322	-9.310997292532527	1684942
1686547	Graphics	evodrummer: deriving rhythmic patterns through interactive genetic algorithms	2013	5.358581921929798	-8.572887450635791	1686574
1687016	Visualization	a highly flexible virtual reality system	1998	6.180288349322308	-9.294119871293784	1687043
1687255	SE	a ga tool for computer assisted music composition	2007	5.352238883092755	-8.242131722861178	1687282
1687839	AI	agents for games and simulations	2011	4.6895667716136105	-7.9987974767523475	1687866
1688225	EDA	computer-aided ship design at marad	1974	5.887135313648432	-8.90370974722393	1688252
1688944	Graphics	sias, strokes interpreted animated sequences	1989	5.765775993212472	-9.247983845481595	1688971
1689405	HCI	modelling solids and surfaces with sketches - an empirical evaluation	2001	6.013017241979072	-9.115124320131423	1689432
1691450	AI	learning aesthetic judgements in evolutionary art systems	2013	5.165117602778552	-8.448376862968175	1691477
1692386	Graphics	rendering gestures as line drawings	1997	5.7608574083804704	-9.517171676198679	1692413
1692965	Robotics	perceptual load in sport and the heuristic value of the perceptual load paradigm in examining expertise-related perceptual-cognitive adaptations	2012	4.860530191080142	-8.633522972160094	1692992
1693039	AI	appraisal of emotions from resources	2014	5.121460953159875	-8.51091848031755	1693066
1693209	Graphics	computer vision and graphics	2016	5.729788986700896	-8.782507659144914	1693236
1693884	HCI	a mixed-initiative interface for animating static pictures	2018	5.5880076289691525	-9.423561534159845	1693911
1694032	Visualization	augmenting reality with geo-referenced information for environmental management	2002	6.198381212338294	-9.224706786810422	1694059
1694205	Graphics	computer-made perspective movies as a scientific and communication tool	1964	5.628653999953282	-9.100242610576672	1694232
1694261	AI	a procedural balanced map generator with self-adaptive complexity for the real-time strategy game planet wars	2013	4.381127891357925	-8.038925223825007	1694288
1694396	Robotics	a component-based framework to rapidly prototype online chess games for home entertainment	2006	5.584875756058166	-8.370975993415687	1694423
1694623	Robotics	voxel modelling for rapid manufacturing	2001	6.262638857410519	-8.156771236385694	1694650
1696222	AI	madem: a multi-modal decision making for social mas	2008	4.809006386230859	-8.32947924108706	1696249
1696285	Robotics	an owl-based ontology to represent knowledge about location, space and perceputual primitives	2010	4.693205087957615	-8.819792329801151	1696312
1696437	HCI	polygon reduction for collision using navigation voxel and qem	2018	5.583304367218673	-9.499441467537466	1696464
1696744	ML	a transmission type scanning system for ultra high resolution scanning	2017	5.974854976910099	-8.598360101724538	1696771
1697272	Visualization	grow: visualising nature at nanoscale	2012	5.973257582573052	-8.32894083516845	1697299
1697472	SE	a 3-d structural components automatic modeling method based on bim	2017	5.769590960246037	-8.282406418738631	1697499
1697864	AI	the evolutionary process of image transition in conjunction with box and strip mutation	2016	5.344521210976659	-8.339476468478994	1697891
1698864	Graphics	real-time rendering of real world environments	1999	5.657906099128473	-9.535276509917127	1698891
1698968	AI	interactive problem solving in an intelligent virtual environment	2003	4.61518967182	-8.591947417040512	1698995
1699016	HCI	virtual planning rooms (vipr): a 3d visualisation environment for hierarchical information	2006	6.0909617987202616	-8.785134655614009	1699043
1699654	Visualization	using aging to visually uncover evolutionary processes on networks	2012	5.262153203502428	-7.902840568731114	1699681
1700199	Graphics	data-driven suggestions for creativity support in 3d modeling	2010	5.960625990806148	-9.35856673291955	1700226
1700710	HCI	incorporating stress estimation into user-centred agent-based platforms	2012	4.7788107416761365	-8.837439688741394	1700737
1702003	Graphics	investigating user response to a hybrid sketch based interface for creating 3d virtual models in an immersive environment	2015	6.157975741047673	-9.744545161914488	1702030
1702901	Visualization	surface construction from within a virtual environment	1999	5.857229889594192	-9.687499881062068	1702928
1702963	Graphics	a computer animation movie language for educational motion pictures	1968	5.8715902236818325	-9.533676167447561	1702990
1703087	HCI	applying data mining to extract design patterns from unreal tournament levels	2014	4.7391165788761045	-8.064344921392967	1703114
1704229	HCI	scp camera	2007	5.9754130000554815	-9.746648246374422	1704256
1704415	Robotics	a flexible component-based robot control architecture for hormonal modulation of behaviour and affect	2017	4.554386560296219	-8.539103367731467	1704442
1705611	Robotics	designing a secure and robust mobile interacting robot for the long term	2003	4.421332430026394	-9.222147383613652	1705638
1705622	Graphics	a note on rendering 3-d strange-attractors	1988	6.04200160595046	-7.9568359970533455	1705649
1705634	Visualization	virtualized traffic: reconstructing traffic flows from discrete spatiotemporal data	2009	5.042569239909252	-8.337689995189109	1705661
1705637	Robotics	using a human-in-the-loop evolutionary algorithm to create data-driven music	2006	5.462162832447982	-8.585062812199688	1705664
1705802	HCI	computer-assisted authoring of interactive narratives	2015	6.177216526132116	-8.792010930961004	1705829
1706516	Graphics	crowdviewer: from simple script to large-scale virtual crowds	2007	5.451657772281848	-9.575542697145456	1706543
1706961	Graphics	the judgement of lyon	1997	5.726782637294776	-9.006697271919801	1706988
1707807	AI	time sensitive sequential myopic information gathering	1999	4.64727434492325	-8.127930030498819	1707834
1710137	Robotics	variable scale method and map loading evaluation of mobile map	2014	6.210758511174017	-9.050572349646194	1710164
1710288	AI	acquiring user models to test automated assistants	2013	6.2074748683539065	-8.472123594477845	1710315
1710552	HCI	egrid: supporting the control room operation of a utility company with multi-touch tables	2010	5.953761777666252	-9.628121482977056	1710579
1711324	Visualization	an optimizational approach for an algorithmic reassembly of fragmented objects	2015	5.9097092083920755	-8.022941791328538	1711351
1711432	AI	the players of games: evaluating and recording human and ai game playing behaviour	2013	4.844297954733169	-7.94347915668142	1711459
1711439	Visualization	rapid modeling and design in virtual environments	1996	6.121074305241376	-9.034355994806	1711466
1711447	HPC	about the art in this issue	1997	5.091587691977504	-8.63768804800567	1711474
1712209	Robotics	a tool-set for table based direct behavioral configuration of c++ models	2003	5.935603063433808	-9.072193413042255	1712236
1712520	Graphics	render me real?: investigating the effect of render style on the perception of animated virtual humans	2012	5.927803085495484	-9.524624363714905	1712547
1712704	Robotics	distributed control in a mechatronic musical instrument	2014	5.300511080875759	-7.898557683869054	1712731
1712802	EDA	development of a digital framework for the computation of complex material and morphological behavior of biological and technological systems	2015	5.215096234343521	-8.423024034388954	1712829
1713112	Graphics	simulation of clothing with folds and wrinkles	2003	5.126655671340328	-9.715086020028805	1713139
1713696	NLP	modeling of flowers with inverse grammar generation interface	2012	5.7604517981358105	-8.84356821868939	1713723
1714480	Graphics	bit-mapped graphics: a semantics and theory	1987	6.019275485401281	-8.678319663533497	1714507
1715458	AI	persuasive strategies in dialogue games with emotional reasoning	2017	5.2259987389286975	-7.910761291137259	1715485
1718395	HCI	visualizing sequential data: a new detail-in-context layout	2000	5.482984291201966	-9.026056085676073	1718422
1719040	Graphics	hierarchical representation of three-dimensional objects using verbal models	1981	5.815815149409387	-8.165247974479225	1719067
1720925	Robotics	the role of internal states in the emergence of motivation and preference: a robotics approach	2007	4.435031607776942	-8.407818030421472	1720952
1722069	Vision	the role of visual comparison testing in material appearance modeling	2014	5.6477531901386495	-9.53231604058778	1722096
1722618	Graphics	automatic differentiation, c++ templates, and photogrammetry	2004	5.992291833626144	-8.536855293061382	1722645
1722833	AI	automated interior design from a to z	2008	6.251321324477309	-9.037471507699381	1722860
1722925	Robotics	point clouds construction algorithm from a home-made laser scanner	2008	5.577617821719117	-9.294012290652347	1722952
1723866	HPC	direct and indirect representations for evolutionary design of objects	2007	6.272366902921741	-8.093052799977906	1723893
1724079	Robotics	modeling cognitive development on the balance scale task	1983	4.414792405042674	-8.006223390446173	1724106
1724103	HCI	comparing paired comparison-based interactive de and tournament interactive ga on stained glass design	2011	5.248248701198103	-8.3687553106381	1724130
1725296	Robotics	a distributed framework for relaying stereo vision for telerobotics	2004	5.317491876900185	-9.736947921908254	1725323
1725869	Visualization	an open framework for 3d craniofacial visualization system	2011	5.380027427593942	-9.547687523574359	1725896
1727502	HCI	patchwork: a software tool for early design	1998	6.047923993206178	-8.9726390682789	1727529
1728110	Robotics	an algorithm of calligraphy beautification based on improved velocity and width model	2015	5.855280719249908	-8.592184889173119	1728137
1729809	HCI	an interaction design framework for social robots	2011	5.841689289523772	-9.621511394963257	1729836
1730164	Robotics	the crucial role of robot self-awareness in hri	2011	4.811329516656208	-7.916746290502595	1730191
1730381	HCI	re-envisioning reality: reflectance field acquisition of actors, objects, and environments	2005	5.277493003140315	-9.699181134577314	1730408
1731570	Visualization	invited talk: shape modeling for dummies	2006	5.841900294594479	-9.18154154466618	1731597
1731712	AI	robot social intelligence	2012	4.935136182932746	-8.452746144242338	1731739
1731856	Visualization	distributed virtual reality environments based on rewriting systems	2003	6.176745719344832	-9.415206193380874	1731883
1732048	HCI	do you follow angel agent’s advice?: a pilot study for decision making support by multiple animated agents	2016	5.727078532112661	-7.969013549990474	1732075
1732493	HCI	d-flip: dynamic & flexible interactive photoshow	2013	6.287029739755607	-9.444743601337658	1732520
1733366	Graphics	algorithm for accurate three-dimensional scene graph updates in high-speed animations of previously simulated construction operations	2009	6.2166408955558845	-8.715498072419246	1733393
1733799	HCI	carosa: a tool for authoring npcs	2010	5.101676668467703	-8.76912730851994	1733826
1733831	SE	the evolution of evolutionary software: intelligent rhythm generation in kinetic engine	2009	5.57719159805183	-8.852409993832051	1733858
1734875	Graphics	make it home: automatic optimization of furniture arrangement	2011	5.3389489206871215	-9.537117486321447	1734902
1735183	Graphics	motonms: a matlab toolbox to process motion data for neuromusculoskeletal modeling and simulation	2015	4.675872428779555	-9.505833838726328	1735210
1735535	Graphics	algorithmic mirror	2007	5.6028136438788065	-9.207419329366338	1735562
1736662	AI	believable group behaviours for npcs in fps games	2017	4.765250363931137	-8.176875110818001	1736689
1736907	Graphics	three-dimensional metamorphosis: a survey	1998	5.908754943917062	-9.097794217897194	1736934
1737887	Robotics	social exploration: mars rovers	2014	4.530376371319568	-9.718007308400908	1737914
1738141	Graphics	three-dimensional proxies for hand-drawn characters	2012	5.060970732025486	-9.801492560843815	1738168
1738277	Robotics	modeling adaptive media processing workflows	2006	5.0224703480459905	-9.568334337840968	1738304
1740629	AI	iworlds: generating artificial control systems for simulated humans using virtual worlds and intelligent environments	2012	5.039857830958507	-8.817223673289957	1740656
1740666	Graphics	digital image processing at los alamos scientific laboratory	1974	5.357396202394243	-9.12362744612223	1740693
1741206	Visualization	computational imaging and displays: capturing and displaying richer representations of the world	2018	5.2763687580297765	-9.575776480973527	1741233
1742051	Visualization	cavecad: architectural design in the cave	2013	6.017343304543092	-9.758124991227973	1742078
1742184	Visualization	cell based evolutionary virtual world framework	2017	4.904264213906835	-8.44803140850224	1742211
1743326	AI	application of evolutionary algorithms to garment design	2013	5.325612920417017	-9.039434665686377	1743353
1743415	Graphics	playstation 4, infamous: second son	2015	5.808472949167298	-9.171665476640982	1743442
1745678	Vision	multi-view sketch-based freeform modeling	2007	5.866040941404301	-9.162113047582904	1745705
1746184	Graphics	interactive 3d reconstruction: new opportunities for getting cad-ready models	2015	5.357635921578493	-8.988729138078456	1746211
1746381	HPC	bucco: multi-dimensional butterflies installation	2009	5.962728304281539	-8.172929706560767	1746408
1746495	AI	refining the paradigm of sketching in ai-based level design	2015	5.819277107806692	-8.049962468595663	1746522
1746608	HCI	pheromusic: navigating a musical space for active music experiences	2014	5.2972396800290165	-8.594608832088934	1746635
1746784	Graphics	a facial rigging survey	2012	5.746985431969058	-9.354219634057408	1746811
1747263	AI	folk psychology for human modelling: extending the bdi paradigm	2004	5.105497473892284	-7.947372701135715	1747290
1747473	Graphics	as time flies by: mixed image and model-based rendering of an historical landscape from helicopter images	2004	5.837740303492295	-9.167026326489752	1747500
1748168	Graphics	fish schools: pdes simulation and real time 3d animation	2003	5.402925295208245	-8.417723307461934	1748195
1748315	Graphics	shadow maps and projective texturing in x3d	2010	5.75438138320784	-9.239515915534273	1748342
1748449	Graphics	starship troopers	1998	5.729995503580838	-9.310659766550348	1748476
1749835	AI	procedural urban environments for fps games	2016	4.567508540456665	-8.3850301776498	1749862
1750293	Robotics	comparing behavior trees and emotional behavior networks for npcs	2012	4.81733844945022	-8.031182510645102	1750320
1750689	Graphics	automatic tailoring and cloth modelling for animation characters	2014	5.842453378092477	-8.59506718645509	1750716
1750788	AI	automated assembly as situated development: using artificial ontogenies to evolve buildable 3-d objects	2005	4.562642156233874	-8.265721629821025	1750815
1750987	HCI	enhancing human computer interaction with episodic memory in a virtual guide	2013	4.503975552333842	-8.842624842297871	1751014
1751107	HCI	herding sheep: live system development for distributed augmented reality	2003	5.513505267033504	-9.163201524226759	1751134
1751481	PL	melody generator: a device for algorithmic music construction	2010	5.822382939108338	-8.669849576534995	1751508
1755308	HCI	intelligent camera control using behavior trees	2011	5.9839619499923025	-9.758045878282164	1755335
1755630	HCI	hlsl and pixel shaders for xaml developers - a comprehensive guide to creating hlsl pixel shaders for wpf and silverlight applications	2012	6.086626397666099	-8.436722399250916	1755657
1755673	EDA	sketch based picture-collage generation using evolutionary computation	2016	5.6658795147170675	-8.858878414646721	1755700
1755960	Visualization	beyond stereoscopic: combining spatial acquisition technologies in real-time engines to produce immersive virtual reality expereinces for the dissemination of archaeological research	2016	6.304824151838459	-8.276979393835465	1755987
1756194	Vision	communicating 3d shape using lines	2007	6.2860505634329416	-8.0355950570096	1756221
1756288	AI	human-level ai's killer application: interactive computer games	2000	4.759053604050009	-8.081515119403754	1756315
1757096	Visualization	occlusion culling in alan wake	2011	5.76660976934183	-8.795109775915417	1757123
1757332	Graphics	interactive computer graphics - a top-down approach using opengl (4. ed.)	2006	6.046455878047249	-8.451330461152084	1757359
1757597	Visualization	agent-based interface for a 3d virtual office space	2013	5.145617866573086	-8.565411874682976	1757624
1757830	EDA	bdi design principles and cooperative implementation in robocup	1999	4.6257493352228005	-7.900303334586039	1757857
1758821	DB	on the probabilistic performance of algorithms for the satisfiability problem	1986	4.744883205880671	-8.303412315767481	1758848
1760336	Graphics	an approach to solid modeling in a semi-immersive virtual environment	2000	6.003340438081398	-9.440577681835876	1760363
1760764	Robotics	emergent design: opportunities for hybridizing agent-based and evolutionary computation	2004	5.590599762905635	-8.176160027929624	1760791
1761835	HCI	procedural architecture using deformation-aware split grammars	2013	5.632879606554887	-8.987636443552407	1761862
1762268	Graphics	interactive character animation using simulated physics	2011	5.183477629823858	-9.524110752028657	1762295
1762328	Graphics	principles of traditional animation applied to 3d computer animation	1987	5.9199578451515125	-8.990057787002582	1762355
1762520	Graphics	cloth simulation for computer graphics	2018	5.872902894027665	-9.398840038781254	1762547
1763245	Vision	keynote talk: procams for fast 3d reflectance capture and display	2007	5.7475265034227085	-9.66312460336837	1763272
1763722	Robotics	haptically-aided extrusion for object edition in cad	2008	5.766318121788402	-9.021058440051814	1763749
1764930	Vision	piecemeal evolution of a first person shooter level	2018	5.168581748186514	-8.731224252646806	1764957
1765853	Embedded	modular composing high-performance real-time rendering software	1994	6.266002298589291	-9.018783263459785	1765880
1765998	Graphics	the application of mpeg-4 compliant animation to a modern games engine and animation framework	2010	6.26572738419134	-9.623829981958648	1766025
1767143	Graphics	hdr tv output and lighting gears of war 4	2017	5.867471136191313	-9.287681665197793	1767170
1767182	Graphics	the drama of illumination: artist's approaches to the creation of hdr in paintings and prints	2010	5.662939622997332	-9.445674049563227	1767209
1767421	AI	comparative study of genetic algorithm and ant colony optimization algorithm performances for the task of guitar tablature transcription	2015	5.3668935761924725	-8.577840027265633	1767448
1767907	Graphics	an extended evaluation of two-phase scheduling methods for animation rendering	2005	5.992715706867157	-8.564886437247349	1767934
1768313	AI	using interactive evolution to discover camouflage patterns	2010	5.8503734904344435	-8.553735647633234	1768340
1768565	Graphics	an ecosystem based model for real-time generative animation of humanoid non-player characters	2013	5.102411219977296	-8.47464700666357	1768592
1768717	HCI	biological content generation: evolving game terrains through living organisms	2015	4.540917300194884	-8.040839239623603	1768744
1768796	AI	dynamic learning agents and enhanced presence on the grid	2003	4.668237020442987	-8.436337250507577	1768823
1769138	Visualization	toward a model-based approach to the specification of virtual reality environments	2002	5.937704253120312	-9.74563153667841	1769165
1770473	Robotics	towards a relational approach for tool creation by robots	2017	4.503066855883137	-9.688068376903997	1770500
1771129	HCI	a new approach supporting perception guiding and multi-objective decision making for behavior animation	2007	4.566975248184831	-8.108232779976838	1771156
1771449	Graphics	evolving story and character generation for role-playing games	2012	5.098853067516332	-8.336715115958924	1771476
1771992	Visualization	the technology of stereo photography and virtual reality in research of virtual museum	2006	6.1813856513791565	-9.272842504666887	1772019
1772127	Graphics	advanced techniques in real-time hair rendering and simulation	2010	5.993914440201392	-8.982860972200685	1772154
1772569	Robotics	film photography is dead: long live film: what can digital photography learn from the film era?	2012	5.761678632679065	-8.637147441468025	1772596
1772946	HCI	ubiquitous animation: an element-based concept to make 3d animations commonplace	1997	6.226832293030367	-8.43603350032437	1772973
1773259	Embedded	a versatile simulated reality framework - from embedded components to adas	2012	4.569345396253332	-9.065553808991345	1773286
1773789	Graphics	directing hair motion on tangled	2011	5.570707898699036	-9.45430580215492	1773816
1773825	AI	intelligent agents for semantic simulated realities - the isreal platform	2010	4.985330495948303	-8.852608109687154	1773852
1774131	Visualization	a data smoothing app	2017	6.233497138800382	-8.062377460523484	1774158
1774370	PL	a shaft culling tool	2000	5.9373853014889875	-8.161082095204605	1774397
1775015	AI	applying social norms to implicit negotiation among non-player characters in serious games	2016	4.9459833687679735	-8.800389623270757	1775042
1775556	Graphics	computer-generated graphite pencil rendering of 3d polygonal models	1999	5.473418951792556	-9.490222261985105	1775583
1775692	SE	exploring immersive interfaces for well placement optimization in reservoir models	2016	5.773891260105784	-9.678099192592557	1775719
1775884	AI	cognitive and behavioral model ensembles for autonomous virtual characters	2010	5.080676931903717	-8.49132805806491	1775911
1775903	Logic	a computational personality-based and event-driven emotions model in pad space	2012	5.076486058346613	-8.019390098631327	1775930
1776053	Visualization	an interaction abstraction model for seamless avatar exchange in cvet	2014	5.161374841068589	-9.015415314879457	1776080
1776114	AI	incorporating characteristics of human creativity into an evolutionary art algorithm	2007	5.2588470998899925	-8.237082524412719	1776141
1776987	EDA	a survey on cad methods in 3d garment design	2010	5.817081064074291	-8.704813379890425	1777014
1777455	AI	applying planning to interactive storytelling: narrative control using state constraints	2010	4.9130808711377565	-9.250017239079652	1777482
1777781	AI	modeling agents with a theory of mind: theory-theory versus simulation theory	2012	4.563489534731334	-8.357210531944961	1777808
1778017	NLP	abstract ocean waves	2011	5.866701586819548	-8.689901764819734	1778044
1778218	Graphics	teddy: a sketching interface for 3d freeform design	1999	5.319960839801807	-9.764584586693498	1778245
1779097	Graphics	computational design of metallophone contact sounds	2015	5.911624889725751	-9.173444478311213	1779124
1779244	Graphics	mnpr: a framework for real-time expressive non-photorealistic rendering of 3d computer graphics	2018	6.1944131350642255	-9.279560386318986	1779271
1779628	HCI	natural language in four spatial interfaces	1997	6.057657846160238	-9.405505479793364	1779655
1779993	EDA	algorithms and approaches for procedural terrain generation - a brief review of current techniques	2016	5.830854735979876	-8.607872677449036	1780020
1780081	Graphics	"""directing the plant interactions for """"over the hedge"""""""	2006	5.760312262872048	-8.635189758691578	1780108
1780498	HCI	incorporating sound in simulations	2017	5.365836421763804	-8.83732169846822	1780525
1780948	Graphics	management of qos for real-time shared three dimensional virtual spaces	1996	5.8783737545398225	-9.802475018104873	1780975
1780959	HPC	graphical representation of models and results in the finite element system cosar	1990	6.058377486555813	-8.037765506297212	1780986
1780960	AI	perceiving attributes of game ai using fuzzy logic	2018	4.920796322703223	-8.438538893781217	1780987
1781008	Graphics	score generation with l-systems	1986	6.010173515988708	-8.952203714949446	1781035
1781578	EDA	shape exploration of designs in a style: toward generation of product designs	2006	6.003423907150081	-7.996544179117329	1781605
1782054	AI	automated game design via conceptual expansion	2018	5.506143538864866	-8.173143687381026	1782081
1782403	SE	generating missions and spaces for adaptable play experiences	2011	5.178749582496007	-8.042341240093014	1782430
1782743	Graphics	automated regression tests for character animation systems	2017	6.243773888954191	-8.593339100070091	1782770
1783051	ML	artist agent: a reinforcement learning approach to automatic stroke generation in oriental ink painting	2012	5.573302998413033	-9.083672712701196	1783078
1783532	Robotics	a layered brain architecture for synthetic creatures	2001	4.661056239454419	-7.912743333932553	1783559
1784703	AI	case-based action planning in a first person scenario	2018	4.550110794140704	-8.151302455995397	1784730
1784857	AI	real-time breeding composition system by means of genetic programming and breeding procedure	2014	5.600094458143195	-8.409059844481591	1784884
1785184	Visualization	new technique for transfer function specification in direct volume rendering using real-time visual feedback	2002	6.305208162113972	-9.196591565510694	1785211
1786686	HCI	beyond perspective - a model-based approach for camera-based 3d-interface design	2014	5.60285459683512	-9.495296215712116	1786713
1786959	HCI	shared virtual worlds for education: the explorenet experiment	1997	5.176521726287522	-8.483423438137441	1786986
1787239	AI	reusing skills for first-time solution of navigation tasks in platform videogames	2017	4.384508005689833	-8.282005897176504	1787266
1787469	Visualization	interviews3d: a platform for interactive handling of massive data sets	2007	6.257629657647463	-8.247614926933974	1787496
1787473	Graphics	sketchy hairstyles	2005	5.370674843261924	-9.76829346432985	1787500
1787628	Graphics	digital heritage reconstruction using super-resolution and inpainting	2016	5.728901027084673	-9.30095055917123	1787655
1787714	Logic	green: a tool for modelling natural elements.	2000	5.907957896078418	-8.216652819754009	1787741
1787760	AI	learning human behavior from analyzing activities in virtual environments	2007	4.46074005369668	-8.358348332794977	1787787
1788058	Robotics	an interactive camera planning system for automatic cinematographer	2005	6.01368017230165	-9.533420188920653	1788085
1788126	Vision	a generic after action review capability for game-based training	2011	4.3805228828993465	-7.890760985623472	1788153
1788211	HCI	cinegrid, high quality media streaming and processing on advanced photonic networks	2016	5.689689368958424	-9.410805768104119	1788238
1788822	Visualization	poster: volume cracker: a bimanual 3d interaction technique for analysis of raw volumetric data	2013	5.516929056622892	-9.546747476298473	1788849
1789154	Graphics	mtv top of japan (open)	1997	5.279340263459488	-9.624364958567442	1789181
1789156	Visualization	visualizing the tape of life: exploring evolutionary history with virtual reality	2018	5.115980935195377	-8.034969549067311	1789183
1789352	Visualization	sensory design for virtual environments	2003	4.893456579967988	-8.55878664137507	1789379
1790598	HCI	variations forever: flexibly generating rulesets from a sculptable design space of mini-games	2010	5.6161330870467205	-8.120520599450877	1790625
1790688	AI	realtime generation of customized 3d animated explanations for knowledge-based learning environments	1997	5.770929362091551	-9.478973011825136	1790715
1791218	Visualization	integrated modeling of road environments for driving simulation	2015	5.796821900234161	-7.9013922139894115	1791245
1792524	AI	evolution of artificial agents in a realistic virtual environment	2005	4.66149286001405	-8.59437648024456	1792551
1793065	Networks	practical design and implementation of a cave system - high quality four walls cave howto	2007	5.599864097910484	-9.802937488673647	1793092
1793112	SE	affordances in representing the behaviour of event-based systems	2016	5.187801853083559	-8.443074673017707	1793139
1793858	Visualization	sparogram: the spatial augmented reality holographic display for 3d visualization and exhibition	2014	6.306043523639841	-9.559888551283278	1793885
1794415	HCI	adaptive art - a shape language driven approach to communicate dramaturgy and mood	2011	6.09627341653341	-9.218905398584793	1794442
1794494	Robotics	teaching industrial automation concepts with the use of virtual/augmented reality - the iec 61499 case	2018	5.900732078849659	-9.539449686184597	1794521
1795613	Graphics	is the fractal golden curlicue cold?	1995	5.7133557781503175	-8.074792486053001	1795640
1797271	HCI	image-based techniques for the creation and display of photorealistic interactive virtual environments	2004	6.231301614113146	-9.305404826837792	1797298
1797360	AI	the bic model: a blueprint for the communicator	2007	4.853056555599709	-7.90086141760442	1797387
1799022	Visualization	virtual designs and reconstructions of amber works: amber craftsman simulator	2017	5.737069340457166	-9.30527001925702	1799049
1799060	EDA	the evolutionary sound synthesis method	2001	5.355043215124843	-8.609018234442624	1799087
1799122	Graphics	making graphics physically tangible	1999	5.131549860719207	-9.425960134214755	1799149
1800026	Graphics	interactive simulation of dynamic crowd behaviors using general adaptation syndrome theory	2012	4.944603255519072	-8.066777556848063	1800053
1800251	Visualization	know when to fold	1998	5.753832789947463	-9.624618168335132	1800278
1800538	Robotics	multi-level control for animated autonomous agents: do the right thing...oh, not that..	1997	4.868306569790831	-8.840627210014716	1800565
1800613	Visualization	mesh segmentation and texture mapping for dimensional inspection in web3d	2017	5.879183243697975	-9.093902117130305	1800640
1801123	HCI	interactive image filtering with multiple levels-of-control on mobile devices	2016	6.268240345245592	-9.253717723574225	1801150
1801315	HCI	jack: a toolkit for manipulating articulated figures	1988	5.5636062879680965	-9.690286369606426	1801342
1802281	Arch	study on the simulation of trees	2006	6.150923338286697	-8.203263506772245	1802308
1802675	Graphics	the design and evolution of disney's hyperion renderer	2018	5.834816935983667	-9.001944158481033	1802702
1803190	EDA	isaac: a meta- system for virtual environments	1997	6.210014676805985	-8.975980453318295	1803217
1803341	Graphics	how the virtual inspires the real	2002	5.727760687715678	-9.126875218692268	1803368
1803548	Graphics	mathematical clay	2010	5.765857069673086	-9.28906468994324	1803575
1804265	Graphics	modeling with rendering primitives: an interactive non-photorealistic canvas	2007	5.685539284982994	-9.355287635607333	1804292
1804481	Vision	the technical research and system realization of 3d dice game	2008	5.634230004577165	-9.361351861142651	1804508
1804528	HCI	three paradigms for the study of multi-person and human-machine interaction	1989	4.61927090626524	-8.439658336320644	1804555
1804601	Robotics	computer graphics as an aid to a robot dynamical simulation analysis	1984	5.888166892266084	-8.102879694490028	1804628
1805123	Graphics	animation toolkit based on a database approach for reusing motions and models	2006	5.926032479064608	-9.32297411521574	1805150
1805244	HCI	image lighting effect manipulation for an efficient stylization	2012	5.398332772883292	-9.489375022895722	1805271
1806448	Graphics	affective modelling: profiling geometrical models with human emotional responses	2009	6.063479273465315	-9.732183248696998	1806475
1807033	Vision	from mundane to mandala: digital transformations of photographic art	2001	5.675333073667008	-9.384883884219304	1807060
1807316	Robotics	haptic designation tool to improve working strategy in collaborative virtual environment	2015	5.011813715325333	-9.581545758402033	1807343
1807460	HCI	a smart palette for helping novice painters to mix physical watercolor pigments	2018	6.035991307695451	-9.240130881643813	1807487
1808997	Visualization	using virtual reality to improve space and depth perception	2003	5.8758119126096915	-9.753072348012859	1809024
1810181	AI	automatic heuristic construction for general game playing	2006	4.404502653091231	-7.893799987833122	1810208
1810894	DB	shielding method for segmentation of graphics touching text in engineering drawings	1998	5.910329078940227	-8.678841754791735	1810921
1811143	EDA	chinese calligraphy system in cadal	2011	6.07725079639024	-9.692878934232775	1811170
1811460	Vision	from a serious training simulator for ship maneuvering to an entertainment simulator	2014	5.064738434968984	-9.09527262691896	1811487
1811518	NLP	mise-en-scène of narrative action in interactive storytelling	2017	5.807811214669523	-8.149557791130695	1811545
1811584	AI	evolving musical counterpoint: the chronopoint musical evolution system	2011	5.424169876135311	-8.45668014614675	1811611
1812317	HCI	quantitative evaluation of public spaces using crowd replication	2016	4.648629487450956	-8.917812736980194	1812344
1814133	HCI	tanagra: a mixed-initiative level design tool	2010	6.009004303204083	-8.848608762360277	1814160
1814631	AI	controlling interactive evolution of 8-bit melodies with genetic programming	2012	5.421926220718507	-8.306170025110454	1814658
1815640	AI	an interactive case-based reasoning approach for generating expressive music	2001	6.035312814833193	-8.271357271003172	1815667
1815832	Visualization	interactive distributed rendering of 3d scenes on multiple xbox 360 systems and personal computers	2012	6.307231919540367	-9.332529084703152	1815859
1815858	AI	evolutionary music composition based on zipf's law	2011	5.361316970916988	-8.371062789963224	1815885
1816090	Mobile	a flexible gaze tracking algorithm evaluation workbench	2012	4.713140459213991	-9.787294846999846	1816117
1816134	Graphics	faithful, compact and complete digitization of cultural heritage using a full-spherical scanner	2013	6.027784467776173	-8.815921525734721	1816161
1816973	AI	i-clips brain: a hybrid cognitive system for social robots	2014	4.547702917360875	-8.664722689320968	1817000
1817591	HCI	crowdsourcing intelligent design	2018	5.569141435839838	-8.110659422390372	1817618
1817758	AI	on deception detection in multiagent systems	2010	4.847332889197887	-8.12185903268848	1817785
1817891	HCI	don't trust your eyes: cutting-edge visual effects	2009	5.731690742334497	-9.398350921537748	1817918
1818170	AI	towards a dyadic computational model of rapport management for human-virtual agent interaction	2014	5.18324769237775	-8.208218027623769	1818197
1818554	HCI	muse: a multiscale editor	1998	6.2733950759802095	-8.506118948529267	1818581
1820714	Vision	cg restoration of a historical noh stage and its use for edutainment	2006	5.861355435436443	-9.269075393084714	1820741
1821575	Visualization	surface reconstruction of maltese cisterns using rov sonar data for archeological study	2011	6.0810911370383	-8.183610923123947	1821602
1821790	AI	general win prediction from agent experience	2018	4.447445880394596	-7.930694759012043	1821817
1823891	Vision	rule-based art pattern cad	1988	5.6350851840895535	-9.00636870799422	1823918
1824512	HPC	design and implementation of a cluster based smart camera array application framework	2008	5.2169409340855095	-8.799149361931226	1824539
1825714	Graphics	2d shading for cel animation	2018	5.5261225891647685	-9.792175134193107	1825741
1826016	Theory	the land of time	1997	5.941468074275142	-9.5025096947794	1826043
1826169	AI	here be dragons: integrating agent behaviors with procedural emergent landscapes and structures	2006	4.9707046348874675	-8.096203644037207	1826196
1826278	Visualization	model synthesis: a general procedural modeling algorithm	2011	5.888359661648974	-8.568617801462059	1826305
1826497	AI	virtual sensing and virtual reality: how new technologies can boost research on crowd dynamics	2018	5.015122567215071	-8.337319144425866	1826524
1827381	Graphics	image & graphic reader	2001	5.945004758081838	-9.757681443540637	1827408
1827565	AI	qualitative spatial representation and reasoning in angry birds: the extended rectangle algebra	2014	5.286319393015277	-8.277403881621959	1827592
1827819	Graphics	the design and simulation of traffc networks in virtual environments	2013	5.76800496980004	-7.896621996663308	1827846
1828096	HPC	a high performance multi-perspective vision studio	2003	5.296361432491302	-8.833694918011147	1828123
1829465	Graphics	animating puss in boots' feather in shrek 2	2004	5.606079469585836	-9.56921738987526	1829492
1829964	AI	integrating reactive and scripted behaviors in a life-like presentation agent	1998	5.698125847234643	-8.767357729537101	1829991
1830111	HCI	virtual space decision support system	1993	5.5962729591333416	-9.765621777449812	1830138
1830174	Visualization	styling evolution for tight-fitting garments	2016	5.2607668401227174	-9.788140990504148	1830201
1831146	Visualization	preprint virtual reality assistant technology for learning primary geography	2015	6.302621265894293	-9.389266375103439	1831173
1833421	Robotics	protein folding for finding active sites by the vmd tool and force field simulation	2011	5.262857784762826	-8.737484750304422	1833448
1834135	AI	integrated approach to personalized procedural map generation using evolutionary algorithms	2015	5.1970563419577545	-8.372562023170621	1834162
1834685	AI	musical pattern extraction using genetic algorithms	2003	5.352836667125001	-8.585821668984085	1834712
1835090	NLP	a method to generate wet and broken-up animal fur	1999	5.684300402216018	-9.011645167443893	1835117
1835909	HCI	session 14: new directions/applications.	1994	4.5301327100160345	-9.210911798523762	1835936
1835957	Graphics	life-like animation system of virtual firefly based on animacy perception( arts & entertainment 3)	2013	5.520606867142386	-9.494950518364169	1835984
1836725	Graphics	nvidia demo team: wolfman	2002	5.969761123947749	-9.016794862364774	1836752
1838360	Vision	predicting the urgency demand of copd patients from environmental sensors within smart cities with high-environmental sensitivity	2018	4.396373292311728	-9.418316377217632	1838387
1839250	EDA	the implementation of a sketch-based virtual product development	2010	5.784495467846532	-9.06739513118032	1839277
1839841	Graphics	the making of the xian terra-cotta soldiers	1997	5.207949476904501	-9.65292697832245	1839868
1841766	Visualization	space-time varying color palettes	2015	6.029439142327193	-9.087742778363332	1841793
1842295	Graphics	facial features of non-player creatures can influence moral decisions in video games	2017	5.028859446439975	-8.949702231110923	1842322
1842728	Graphics	online radiosity in interactive virtual reality applications	1997	5.898995983736113	-9.236945344139944	1842755
1843371	HCI	generative improv. & interactive music project (giimp)	2010	5.5348428847196995	-8.673434327413746	1843398
1843857	Robotics	interactive manipulation model of group of individual bodies for vr cooking system	2010	5.633960984392744	-9.170624781625898	1843884
1844278	HCI	generating levels for physics-based puzzle games with estimation of distribution algorithms	2014	4.605122333139115	-8.203433873024665	1844305
1844424	Vision	using the rnn to develop a web-based pattern recognition system for the pattern search of components database	2002	4.7541875484725535	-8.677126962460394	1844451
1844489	Graphics	evolving l-systems to generate virtual creatures	2001	5.35992848224512	-8.386655423561232	1844516
1845183	HCI	world space surface pasting	1997	5.960231500854932	-9.113137250205892	1845210
1845673	Robotics	the modal logic and fuzzy cognitive maps in telepresence	1996	4.446305917519457	-8.694106304969576	1845700
1845804	Graphics	lpics: a hybrid hardware-accelerated relighting engine for computer cinematography	2005	5.627073919333056	-9.267316146969756	1845831
1845992	HCI	visual vs. functional design of 3d models for games	2005	5.7692737431579415	-7.9989641378190575	1846019
1846744	AI	conbreo: a music performance rendering system using hybrid approach of iec and automated evolution real world applications	2010	5.778544721900103	-8.534608299059894	1846771
1846948	Graphics	would your characters rather go naked?: cloth modeling and animation	1999	5.701030409834031	-8.680849848838678	1846975
1849909	AI	visualisation of building blocks in evolutionary algorithms	2009	5.199096676170508	-8.122441344024129	1849936
1850178	Vision	tutorial on color science	1986	6.2397606037704465	-8.142552875832926	1850205
1850527	AI	a survey of real-time strategy game ai research and competition in starcraft	2013	4.44157021152028	-8.015814922705038	1850554
1850814	AI	keeping the player on an emotional trajectory in interactive storytelling	2015	5.001461360451343	-8.322014178749193	1850841
1850939	Visualization	developing killer apps for industrial augmented reality	2004	5.463865917805919	-8.880253137702185	1850966
1851065	NLP	inferring pragmatics from dialogue contexts in simulated virtual agent games	2011	5.26971138509798	-8.072423217566831	1851092
1851344	AI	a collaborative real time previsualization tool for video games and film	2012	5.685412515782749	-9.702242958748585	1851371
1851458	Graphics	massive destruction in real time	2013	5.7954294284745345	-8.806299702440304	1851485
1852249	Robotics	analysing creative models based on unplugged evolutionary algorithms	2016	5.62276448916353	-8.166570680982348	1852276
1852380	Graphics	wrangling lighting and rendering data at disney feature animation	2004	5.9742097942973125	-8.901053044516289	1852407
1852622	AI	paper wrapping, based on knowledge about face connectivity among paper fragments	2011	5.9762796608540185	-8.86036598058922	1852649
1852842	HCI	programming by demonstration in complex 3d game	2016	4.845893671156075	-8.451007553861887	1852869
1853308	Visualization	seeing into the past: creating a 3d modeling pipeline for archaeological visualization	2004	6.111092006011952	-9.136270613719134	1853335
1853385	Robotics	interactive visualizations for testing physics engines in robotics	2016	4.691197274270435	-9.569588647166924	1853412
1853732	AI	do engineers use convergence to a vanishing point when sketching?	2010	5.649696335918888	-8.851921136577328	1853759
1854884	Graphics	webgl-based streaming and presentation of objects with bidirectional texture functions	2013	6.025099731004901	-9.006226715585571	1854911
1854976	HCI	enhanced constructs for perceptual stimuli and behavioral combination in reactive systems	2000	4.933395031857231	-7.9166793926709556	1855003
1855389	HCI	kaya's screen test	2002	5.824970071548381	-9.44758366707213	1855416
1855971	NLP	generation of dilemma-based interactive narratives with a changeable story goal	2008	5.596673041274931	-8.270259887711836	1855998
1856431	Graphics	new goal selection scheme for behavioral animation of intelligent virtual agents	2005	4.6751277826395965	-8.466013433525868	1856458
1856509	Graphics	computer-generated pen-and-ink illustration	1994	5.903186693742923	-9.17203393978412	1856536
1857180	HCI	darwin's avatars: a novel combination of gameplay and procedural content generation	2015	4.438808238041645	-8.605432175669257	1857207
1857210	AI	from their environment to their behavior: a procedural approach to model groups of virtual agents	2012	4.617615080483146	-9.123135267635798	1857237
1858032	Theory	graphical interface for design of geometric data structures	2000	6.2562292839218125	-8.392480181851862	1858059
1858337	AI	viewing the molecular display: hints from the artificial intelligence of vision	1989	5.878886647786278	-8.637071492552241	1858364
1859041	AI	evolutionary search for entertainment in computer games	2012	5.071347508713375	-8.252327486188133	1859068
1859265	Robotics	3d model dynamic perforation simulation based on game engine	2018	5.587980266119429	-9.530154265232698	1859292
1859348	HPC	visualization methods for sharing knowledge pieces and relationships based on biological models	2003	5.71806609666813	-7.978411608615715	1859375
1859812	HCI	concepts for x-ray based 3d replication in rapid prototyping environment	2018	5.472508061218998	-8.715061293160925	1859839
1859997	DB	animating objects and classes in virtual reality	2018	6.242956099949138	-9.112870525848935	1860024
1860871	EDA	framework for integrated mechanical design automation	2000	5.952215148577978	-8.061394923421725	1860898
1861352	AI	human-robot collaboration: from psychology to social robotics	2017	4.394248258176517	-8.643224776411337	1861379
1861494	EDA	automated cad conversion with the machine drawing understanding system: concepts, algorithms, and performance	1999	5.611508222097644	-8.550054449992013	1861521
1861851	AI	computational intelligence-based entertaining level generation for platform games	2015	4.964184314922215	-8.25667819951367	1861878
1861949	EDA	common formats in automated artwork generation	1972	6.152602383407402	-8.472550295467911	1861976
1862663	Visualization	stereoscopic cell visualization: from mesoscopic to molecular scale	2014	6.174788018017617	-9.183589012826491	1862690
1863886	HCI	creating substance from a cloud: low-cost product generation	2015	5.529410649045744	-9.679889017680829	1863913
1864430	Robotics	context-aware virtual agents in open environments	2010	4.722134297791462	-8.588333382887297	1864457
1865552	EDA	auto cad assisted mapping in building design	2010	5.828595448513653	-8.380521203629888	1865579
1865621	HCI	a research and development about the automatic creation system of the 3-dimensional model using the digital video camera	2005	5.630609007863578	-9.331726658650716	1865648
1867092	AI	co-evolving melodies and harmonization in evolutionary music composition	2018	5.4401120569856785	-8.63168500726264	1867119
1867320	HCI	a new approach for lighting effect rendering	2010	5.42532936263744	-9.40818783219965	1867347
1867594	AI	observation-based expectation generation and response for believable reactive agents	2000	4.70354456268071	-8.053233169126871	1867621
1867597	AI	narrative intelligence from the bottom up: a computational framework for the study of story-telling in autonomous agents	2001	4.8749632324825765	-8.028842311096785	1867624
1867727	HCI	what if your avatar looks like you? dual-congruity perspectives for avatar use	2011	5.825736563997562	-9.687925964361266	1867754
1867851	Visualization	augmented reality sandpit simulating ant colonies	2018	4.617010315514291	-8.173902368927557	1867878
1868305	HCI	computer vision	1973	6.255371740847293	-8.370279067856675	1868332
1868530	AI	the effect of embodiment and competence on trust and cooperation in human-agent interaction	2016	4.9587756674226995	-8.099798339859703	1868557
1869483	Robotics	a framework for task cooperation within systems containing intelligent components	1986	4.505444009027087	-8.526887811514207	1869510
1870475	Robotics	using game physics engines for hardware-in-the-loop material flow simulations: benefits, requirements and experiences	2015	5.05192761997824	-9.024078589915083	1870502
1870545	HPC	a multiagent architecture for distributed virtual environments	2000	5.061324052970559	-9.061785955109542	1870572
1872681	Robotics	towards the design of a human-like fps npc using pheromone maps	2013	4.626242176574155	-8.171192207166026	1872708
1873498	Graphics	simulating the visual environment in real-time via software	1972	5.857452916754327	-9.196754563343852	1873525
1873502	Graphics	will anyone really use radiosoty?	1999	6.180714644677432	-8.618611037966897	1873529
1873608	Visualization	dynamic load-balanced rendering for a cave system	2006	5.470112346530273	-9.708232604055508	1873635
1874180	HCI	an html tool for production of interactive stereoscopic compositions	2016	6.088763781886092	-9.726747995376607	1874207
1874218	ML	an evolutionary music composer algorithm for bass harmonization	2009	5.644011895743407	-8.781875224730749	1874245
1874383	EDA	toward automation in hearing aid design	2011	4.976648762653719	-9.029265852290868	1874410
1875517	AI	integration of advice in an action-selection architecture	2002	4.432522700207722	-8.081399493126025	1875544
1876101	Graphics	technical section: sketch-based modeling: a survey	2009	6.169886773085983	-9.181093614031678	1876128
1876527	Visualization	exploring a boeing 777: ray tracing large-scale cad data	2007	6.111178089168268	-8.196759437814789	1876554
1876958	AI	intelligent virtual agents keeping watch in the battlefield	2004	4.551279063189671	-9.502098037559703	1876985
1879243	Vision	an architectural approach to efficient 3d urban modeling	2011	6.2552763985875615	-8.00833117172117	1879270
1879266	Graphics	using java 3d graphics as an element of a computer graphics course.	2003	6.106037036745697	-8.506797453961811	1879293
1879914	AI	integrating situation awareness and surprise: a computational agent model	2012	4.9691738701065455	-8.057092330646674	1879941
1880214	HCI	an emergent framework for realistic psychosocial behaviour in non player characters	2008	5.184907809765477	-8.235183422220008	1880241
1880806	DB	context in 3d planar navigation	2001	5.976381830970966	-9.340897576020208	1880833
1881758	AI	editorial: the 18th artificial intelligence and cognitive science conference (aics-07)	2007	4.388280032733365	-7.905557164844969	1881785
1882513	EDA	3d virtual apparel design for industrial applications	2005	5.09012242710024	-9.731684883139057	1882540
1882712	AI	believability testing and bayesian imitation in interactive computer games	2006	4.58599168195912	-8.736770863793684	1882739
1883142	Graphics	stylised procedural animation	1999	5.419167280320824	-9.485628213879489	1883169
1885522	AI	implementing hitchcock - the role of focalization and viewpoint	2017	6.189633814136817	-8.395235472668839	1885549
1888164	Vision	parametric 3d-fitted frames for packaging heritage artefacts	2012	5.8482705086845375	-8.849348348016939	1888191
1888584	AI	enabling motivated believable agents with reinforcement learning	2014	4.6004132548129055	-8.121851438316883	1888611
1888645	Graphics	design gallery browsers based on 2d and 3d graph drawing	1997	5.96767434386136	-9.18212342452228	1888672
1888774	Visualization	interactive 3d space group visualization with clucalc and crystallographic subperiodic groups in geometric algebra	2010	6.236612829798636	-8.462334094613992	1888801
1889085	Robotics	inspired - advances in conformal printing: 3d printing onto unknown uneven surfaces	2017	5.740109329161634	-8.75676170158037	1889112
1889447	Robotics	procedural generation of angry birds levels that adapt to the player's skills using genetic algorithm	2015	4.7615902250072	-8.21222444171597	1889474
1889872	AI	a new approach to modeling emotions and their use on a decision-making system for artificial agents	2012	4.51664661658516	-8.25634201237147	1889899
1890292	HCI	touch and design: novel haptic interfaces for the generation of high quality surfaces for industrial design	2007	5.862336029660013	-9.586529142132663	1890319
1890575	Robotics	purposeful perception by attention-steered robots	2005	4.550615855565867	-8.953104364752154	1890602
1891752	Visualization	paintings, photographs, and computer graphics are calculated appearances	2012	5.502136724459323	-9.349186407316424	1891779
1891867	HCI	cartola fc data analysis: a simulation, analysis, and visualization tool based on cartola fc fantasy game	2018	5.687439271138557	-8.699380395543905	1891894
1892904	Web+IR	mobile document scanning and copying	2010	4.567660945369026	-9.573921807290722	1892931
1893141	HCI	mapping cognitive attractors onto the dynamic landscapes of teamwork	2011	4.379976239816426	-8.311013971284051	1893168
1893259	HCI	the impact of communication on a human-agent shared mental model and team performance	2014	4.6799458674824175	-8.76971949695386	1893286
1893592	HPC	robust large-scale rendering: the fq renderfarm engine	2014	6.0239717102830435	-8.982543658141443	1893619
1893782	Graphics	a study on a cooperative character modeling based on an improved nsga ii	2015	5.196738817588671	-8.173208804164382	1893809
1893787	AI	automatic thorough-bass realization in baroque music	2007	5.5688123356719625	-8.771817901457313	1893814
1894598	DB	on the implications of the virtual storyteller's point of view	2008	5.995313640103084	-8.330038990036698	1894625
1894906	DB	using methods-time measurement to connect digital humans and motion databases	2013	5.466950832891928	-8.599785736442348	1894933
1894945	Theory	exact online string matching bibliography	2016	5.064294321254217	-8.213649944191983	1894972
1895450	HCI	intelligent behavioral design of non-player characters in a fps video game through pso	2017	4.403231492477596	-8.100615166883157	1895477
1895488	Graphics	recent developments in skin deformation for character animation	2015	5.2045901396374985	-9.341900487297604	1895515
1895985	HCI	musical expression generation reflecting user's impression by kansei space and fuzzy rules	2012	6.1660630966071714	-9.19769711561655	1896012
1896043	AI	building basic level knowledge network	2011	5.245244921830365	-8.257814365797195	1896070
1896104	Graphics	outside-in: an alternative approach to forest map digitizing	1996	5.987339571821137	-8.479478232916712	1896131
1896115	Graphics	towards mapping the field of non-photorealistic rendering	2010	6.125905361543622	-9.158753455183435	1896142
1896500	Graphics	realistic modeling of self-adapted spider orb-webs in real-time	2013	5.325968167665585	-8.973401494512574	1896527
1896967	HCI	survey on urban warfare augmented reality	2018	4.681501044587869	-9.145703062357908	1896994
1900177	AI	learning bayesian network to predict group emotion in kindergarten by evolutionary computation	2017	5.312971110344788	-8.280527148267307	1900204
1900660	ECom	participatory simulation platform using network games	2008	5.0027149394471015	-8.551044313800151	1900687
1900808	Graphics	artistic image processing with cellular automata and evolutionary algorithms	2015	5.438138174002639	-8.176187463846441	1900835
1902130	Graphics	modeling (seemingly) impossible models	2011	5.847668717122607	-9.017140840494257	1902157
1902483	HCI	exploring game space using survival analysis	2015	4.396213924752948	-8.221563476479876	1902510
1902540	Graphics	materialization of manipulated virtual model	2014	5.439480799438671	-9.532426874354792	1902567
1903733	HCI	lighting the open world of new york zero for prototype 2	2012	5.780160154854632	-9.18817090845131	1903760
1903937	HCI	juno, a constraint-based graphics system	1985	6.157715788921946	-8.856869631314211	1903964
1904307	HCI	analysis of social gameplay macros in the foldit cookbook	2011	5.9950156861811195	-8.462565430197031	1904334
1904602	Visualization	photorealistic real-time visualization of cultural heritage: a case study of friedrichsburg castle in germany	2007	6.023624966753638	-9.314926001880307	1904629
1904945	AI	special track on artificial intelligence in games and multimedia	2014	4.664004613219115	-8.11036912709413	1904972
1904995	Graphics	hybrid creature project: groovy graphics assignment	2018	6.02086901145791	-9.153872357287838	1905022
1905606	HCI	the drawing assistant: automated drawing guidance and feedback from photographs	2013	5.813129337968405	-9.743371196071678	1905633
1905881	HCI	a stereoscopic opengl-based interactive plug-in framework for maya and beyond	2009	6.210606709655637	-9.172865014050467	1905908
1908465	Visualization	sculptup: a rapid, immersive 3d modeling environment	2013	5.856921883184115	-9.289564447345356	1908492
1909013	Crypto	research of 3d chinese calligraphic handwriting recur system and its key algorithm	2007	5.845820939121605	-9.68177205189939	1909040
1911710	Robotics	hierarchical model for real time simulation of virtual human crowds	2001	4.663321318567488	-8.809506783612703	1911737
1912461	Visualization	voreen: a rapid-prototyping environment for ray-casting-based volume visualizations	2009	6.279579556869932	-8.936440644554837	1912488
1913651	Graphics	the continuing evolution of digital cameras and digital photography systems	2000	5.225375893341224	-9.074838279214076	1913678
1913682	AI	an evaluation of perceived personality in fictional characters generated by affective simulation	2018	5.249409223103396	-8.026962354911817	1913709
1916666	Visualization	ontology-based crowd simulation for normal life situations	2005	4.715440089726302	-9.179193382190489	1916693
1917625	Visualization	a low-cost distributed iot-based augmented reality interactive simulator for team training	2017	4.882807900336927	-9.682370576866528	1917652
1917853	Graphics	optimized framework for real time hair simulation	2006	5.258834979850175	-9.349705519577089	1917880
1918639	Graphics	dynamically altering agent behaviors using natural language instructions	2000	5.04882767685584	-9.208090008505057	1918666
1919154	HCI	using gameplay semantics to procedurally generate player-matching game worlds	2012	5.6757763346150485	-8.354419090812256	1919181
1919523	Robotics	simulation coupled learning for a robotic opponent	2010	4.439337640240168	-7.949281327700397	1919550
1920802	Graphics	3d measurement technologies for computer animation	1996	5.391306713506829	-9.617898438844842	1920829
1920971	Visualization	human machine interface in command and control system	2010	5.273537939183621	-8.660231889529621	1920998
1921353	Visualization	multilevel modelling of virtual urban environments for behavioural animation	1997	4.673360881550513	-8.681811962284334	1921380
1921419	AI	co-evolving line drawings with hierarchical evolution	2017	4.921612827535801	-8.163314723346042	1921446
1921896	Vision	line drawings vs. curvature shading: scientific illustration of range scanned artefacts	2010	5.890742044132372	-8.75042915313828	1921923
1922007	Visualization	facing experience: a painter’s canvas in virtual reality	2014	6.178273608264782	-8.929378496424793	1922034
1922580	Visualization	adorning vrml worlds with environmental aspects	2001	6.228001395383448	-8.92450507026449	1922607
1922723	Graphics	realistic eye motion using procedural geometric methods	2009	5.827958498960553	-9.135054048228806	1922750
1922825	Robotics	embodied language learning with the humanoid robot icub	2013	5.022416427982039	-8.043875398537619	1922852
1923530	HCI	stylization of lighting effects for images	2010	5.329898709191888	-9.310324745875453	1923557
1926266	HCI	reality forge: interactive dynamic multi-projection mapping	2016	5.880906651434384	-9.224573287021727	1926293
1926835	Graphics	employing approximate 3d models to enrich traditional computer assisted animation	2002	5.842202732498064	-9.393355930732838	1926862
1927240	Visualization	modelling virtual cities dedicated to behavioural animation	2000	4.821715191916382	-8.890479522110951	1927267
1927347	HPC	intelligent virtual environment using artificial neural networks	2017	4.894087954782899	-9.018753876695184	1927374
1928058	Graphics	interactive cutaway illustrations of complex 3d models	2007	5.575056501117456	-9.282571695674797	1928085
1928551	Visualization	distributed software-based volume visualization in a virtual environment	2005	5.770521345732883	-9.705883824601264	1928578
1928997	AI	analysis of different mediation equations and tightness of control to finely regulate the exchange of control between expert and novice controllers in a fuzzy mediation environment	2007	4.413115171633316	-8.732584981696052	1929024
1929246	AI	progress in artificial intelligence	2017	4.58231321663254	-8.456647019353497	1929273
1929953	Graphics	non-invasive, interactive, stylized rendering	2001	5.815733801223611	-9.149786272762485	1929980
1930361	Graphics	the generation of color sequences for univariate and bivariate mapping	1986	6.0953955620741125	-8.463838701298377	1930388
1930547	Logic	surveying masonry structures by semantically enriched 2.5d textures: a new approach	2012	6.221004780729368	-7.952134289230595	1930574
1931552	Vision	advanced ordinary differential equation based head modelling for chinese marionette art preservation	2015	5.4352827918433535	-9.429554725750624	1931579
1931726	HCI	a nexus of resources, tools and content: using 3-d animation and a digital image library	1999	6.134198373799206	-8.365995422216647	1931753
1931750	HPC	real-time particle systems on the gpu in dynamic environments	2007	4.984721153488581	-8.507685817225246	1931777
1931894	AI	artificial society generation for modern video games	2015	5.27765739481773	-8.26890504324775	1931921
1932132	Graphics	function-based shape modeling and visualization in x3d	2006	6.0440634823117385	-8.783400548648649	1932159
1932372	HPC	reflectance transformation imaging systems for ancient documentary artefacts	2011	6.304013952989335	-8.037068781190763	1932399
1932421	Robotics	a design environment for the rapid specification and fabrication of printable robots	2014	4.948844440598744	-9.599641027602429	1932448
1932525	Embedded	adaptive narrative: how autonomous agents, hollywood, and multiprocessing operating systems can live happily ever after	2001	5.3001953692248005	-8.707685644544496	1932552
1933170	HCI	efficient selection of multiple objects on a large scale	2012	5.89197308722908	-9.748010200494623	1933197
1933738	Visualization	applications of autostereoscopic displays in ophthalmologic studies	2006	5.723679758582128	-9.593422842309863	1933765
1934066	Robotics	a scene-referred color transfer for pleasant imaging on display	2005	5.2377631014212165	-9.220512279387581	1934093
1934699	Graphics	a low-cost model acquisition system for computer graphics applications	2003	5.853890055068628	-9.004445574623622	1934726
1935786	Graphics	realistic shadow augmented reality of rare animals from indonesia	2018	5.711440418603936	-9.672237225190484	1935813
1935965	Visualization	flexible parametrization of scene graphs	2005	6.225605945319432	-9.1860645363076	1935992
1936186	Visualization	narrative, game play, and alternative time structures for virtual environments	2004	5.58427204765634	-8.222148722580709	1936213
1936602	EDA	a system for application-independent time-critical rendering	1994	5.713170957533246	-8.900221670847225	1936629
1936993	Vision	3d reconstruction of the “cave” of the great pyramid from video footage	2013	6.143149544975522	-8.034160673347154	1937020
1937363	DB	behavior trees for computer games	2017	4.541287512741073	-8.109346711663457	1937390
1937814	HCI	multimodal interactive machine learning for user understanding	2015	6.0607450477182665	-9.792715806918476	1937841
1938202	Visualization	rule fusion for the imitation of a human tutor	2010	4.49376216065009	-8.526302109017978	1938229
1938293	Graphics	nvidia real-time graphics research: the geforce 8 demo suite	2007	5.745006320048994	-9.099479847601025	1938320
1938522	Embedded	a colorimetric characterization of the raw digital data of the visible human dataset images	2003	4.419907038543014	-9.266371463287758	1938549
1939547	Graphics	spectral colorimetry using labpqr - an interim connection space	2004	5.628769651637111	-9.109197540627429	1939574
1939639	Robotics	tutelage and collaboration for humanoid robots	2004	4.876429189949699	-8.666296775641369	1939666
1940318	HCI	a mark-based interaction paradigm for free-hand drawing	1994	6.046358839363009	-9.301422688182852	1940345
1940360	Graphics	building crowds of unique characters	2004	5.848119123191661	-9.14561317443084	1940387
1940619	HCI	expand: a stereoscopic expanding technique for compound graphs	2014	5.336350516756227	-9.122409349196266	1940646
1940770	Robotics	a system for real-time spatio-temporal 3-d data visualization in underwater robotic exploration	2005	4.898355667036554	-9.131737192205847	1940797
1941075	Robotics	telepresence mechatronic robot (tebot): towards the design and control of socially interactive bio-inspired system	2016	4.4344820204047695	-9.077732376467734	1941102
1941446	Graphics	interactive display of large solid models for walkthroughs	1996	5.7134151600846135	-8.275369668799994	1941473
1941958	Vision	live image composing	2012	5.320966076329833	-9.100903929529702	1941985
1942706	Robotics	creating expert problem solving systems	2005	5.2504383124014495	-8.006254931078407	1942733
1943714	Robotics	i feel blue: robots and humans sharing color representation for emotional cognitive interaction	2012	4.464470976962844	-8.590076274829267	1943741
1947638	Visualization	play patterns for path prediction in multiplayer online games	2012	4.705832953528893	-8.088637935796564	1947665
1948120	Robotics	recent advances in real-time collision and proximity computations for games and simulations	2012	5.952218930381675	-8.85186225813628	1948147
1948793	Graphics	hair paint	2004	5.17961862414495	-9.722945502859927	1948820
1949891	HCI	implementing an augmented scene delivery system	2002	6.114206593983859	-9.651720637348989	1949918
1951060	HCI	collaboration in augmented reality: how to establish coordination and joint attention?	2011	4.627503059936887	-9.787474804310019	1951087
1951226	AI	optimal character composing for chinese calligraphic artwork	2016	5.645992551926232	-9.371313482496657	1951253
1952034	Graphics	example-based texture synthesis on disney's tangled	2010	5.840087701849109	-9.113676401463216	1952061
1952567	Graphics	multiscale acquisition and presentation of very large artifacts: the case of portalada	2011	5.464342832291432	-8.534728874522802	1952594
1952951	Vision	how realistically can contemporary platoon-level infantry combat be simulated using first-person shooter (fps) video games?	2017	4.904494994318549	-8.37786646100041	1952978
1953069	Visualization	interactive immersive design application: analysis of requirements	2003	6.063759549100743	-9.535452014723033	1953096
1953485	Vision	generating background npcs motion and grouping behavior based on real video sequences	2018	4.5205084818817785	-9.003004140384757	1953512
1954668	Theory	adding cartoon-like motion to realistic animations	2017	6.049262823995348	-8.275736336151905	1954695
1955168	Graphics	bmrt: a global illumination implementation of the renderman standard	1996	5.922921583537967	-8.984762511040309	1955195
1955288	Graphics	a fast approach for automatic generation of populated maps with seed and difficulty control	2017	5.469722833169104	-8.435401447894472	1955315
1956284	Vision	generating animated sequences from 3d whole-body scans	1999	5.427676074504541	-9.741546578351214	1956311
1957243	Embedded	an adopter centric api and visual programming interface for the definition of strategies for automated camera tracking	2015	6.195355471769169	-9.654000638594868	1957270
1958430	HCI	a multi-layered visualization language for video augmentation	2017	4.688195986085263	-9.687132598097953	1958457
1958952	HCI	an evolution perception mechanism for organizing and displaying 3d shape collections	2017	6.166203426148777	-8.878246590184174	1958979
1959580	HCI	a comparative study of virtual prototyping and physical prototyping	2004	5.708123627355222	-9.337991920281269	1959607
1961782	Graphics	sketchsoup: exploratory ideation using design sketches	2017	5.442154483707167	-9.255678110198591	1961809
1961940	HCI	the evolution of fun: automatic level design through challenge modeling	2010	4.978694978478186	-8.220178367265811	1961967
1962009	HCI	an expressive dilemma generation model for players and artificial agents	2016	5.026037051416135	-8.134039160343155	1962036
1962208	HCI	micro and macro predictions: using sgoms to predict phone app game playing and emergency operations centre responses	2018	4.438875264987964	-9.793527994878342	1962235
1963049	HCI	getting the right tools for the job: distributed planning in cardiac surgery	2004	4.715929412087774	-8.615875637604908	1963076
1963428	Vision	imaging the egyptian obelisk at kingston lacy	2015	6.161806507368873	-8.18242329451801	1963455
1964136	Graphics	the lego movie: bricks, bricks and more bricks	2014	5.73433240327958	-9.262342245133668	1964163
1964241	Vision	comic layout for automatic comic generation from game log	2008	5.660957219956419	-9.407671065281509	1964268
1964313	Graphics	programmable synthesis of element textures and application to cartography	2015	5.984811753533696	-8.803206017847039	1964340
1964790	Graphics	interactive evolution of particle systems for computer graphics and animation	2009	5.496454358416792	-8.857298554846437	1964817
1964957	ECom	artificial player for quake iii arena	2001	4.471709041575338	-8.232626504093183	1964984
1965137	Visualization	structured mechanical collage	2014	6.055671266339026	-9.513368458996677	1965164
1965591	Graphics	ilm facial performance capture	2016	5.836880136993816	-9.403878560126694	1965618
1965797	ML	identifying patterns in combat that are predictive of success in moba games	2014	4.460699058282337	-7.96803000635104	1965824
1965834	AI	coordination and sociability for intelligent virtual agents	2007	4.864470686797579	-8.343807319474887	1965861
1966146	Visualization	innovative display technologies-why a flat panel when you can have a crt?	1984	5.484524499818522	-8.676930681142428	1966173
1966591	Robotics	probabilistic modeling of mental models of others	2015	5.161066624947199	-8.344968645636332	1966618
1967103	Graphics	getting there: the ten top problems left	2000	5.7572670914339295	-9.234667370085381	1967130
1967884	ML	a framework for compact and improved panoramic vr dissemination	2016	5.594115200761765	-9.761923222958382	1967911
1968189	Graphics	facial animation: past, present and future (panel)	1997	5.74178954543248	-9.538986790915944	1968216
1968260	Graphics	behavioral programming of autonomous characters based on probabilistic automata and personality	2004	4.8009557886542495	-8.042966085404277	1968287
1968507	Graphics	ray tracing jell-otm brand gelatin	1987	5.698867052770928	-9.503423199333623	1968534
1968659	HCI	paperlego: component-based papercraft designing tool for children	2014	5.9458837022866735	-9.36529725957783	1968686
1969234	Vision	all this useless beauty: a 200 megapixel panorama	2004	5.6492673949821866	-9.674312126030234	1969261
1970354	NLP	adaptive storytelling and story repair in a dynamic environment	2011	5.119410119343433	-8.353232047487142	1970381
1971331	Robotics	study on method of observing maki-e crafts work in urushi craftspeople	2015	5.639561396678821	-9.16864077939296	1971358
1971960	HCI	an artist's experience in using an evolutionary algorithm to produce an animated artwork	2011	5.633512292758808	-8.840336443358325	1971987
1972106	Graphics	creating works-like prototypes of mechanical objects	2014	5.662032246086314	-9.395946686224335	1972133
1972332	HCI	using cyclic scheduling to generate believable behavior in games	2014	5.650037290898082	-9.205979216528627	1972359
1972730	HCI	live sketch: video-driven dynamic deformation of static drawings	2018	5.407152533274718	-9.652827412150316	1972757
1972777	HCI	3d user interfaces for general-purpose 3d animation	1996	5.94545471269317	-9.490450875640958	1972804
1973199	AI	musicianship for robots with style	2007	4.750711977010413	-8.833378507447591	1973226
1974251	HCI	productive frictions: moving from digital to material prototyping and low-volume production for design research	2016	5.9092123749926975	-9.657187729525532	1974278
1974307	HCI	conceptual design scheme for virtual characters	2009	5.215799831830728	-7.937440986649606	1974334
1974408	AI	a social robot as a card game player	2017	4.720023020931805	-8.33217908804664	1974435
1974730	Graphics	the path tracing revolution in the movie industry	2015	5.891428259429894	-9.221683193120953	1974757
1974914	AI	directable crowd animation	2007	6.223451584506817	-9.289885625034609	1974941
1975099	Graphics	agent communication for believable human-like interactions between virtual characters	2012	4.702090772122488	-8.691043566867016	1975126
1975136	HCI	art-directed technology: anatomy of a shrek2 sequence	2004	5.9890669603999855	-8.95395988818784	1975163
1976706	Vision	image morphing for space-time interpolation	2007	5.531114886612422	-9.328185552581747	1976733
1977322	Graphics	principles of three-dimensional computer animation - modeling, rendering, and animating with 3d computer graphics (2. ed.)	1998	5.812967105505281	-9.046129779964478	1977349
1977517	Graphics	the monkey king	2002	6.298673360054168	-9.709088754470484	1977544
1978111	AI	affective evolutionary music composition with metacompose	2017	5.577216267397745	-8.678491339256691	1978138
1978361	Visualization	jim blinn's corner - a trip down the graphics pipeline: line clipping	1991	6.038577087434796	-8.667402908260504	1978388
1979283	AI	the programmable hinge: toward computationally enhanced crafts	1998	5.803964214964943	-9.491261141410185	1979310
1980013	HCI	3-d virtual space creation system reflecting user's emotion by interactive evolutionary method	2003	5.296068368138553	-8.722164090820321	1980040
1980153	AI	human desire inference process based on affective computing	2010	5.025832864857547	-8.308380123602825	1980180
1980922	AI	developing robots that recognize when they are being trusted	2013	5.3991390207697	-8.272182621197572	1980949
1981141	Graphics	creating the flying armadas in guardians of the galaxy	2014	5.85881851195784	-8.992530315376783	1981168
1981361	Graphics	pixels to parks: new animation techniques for fantasyland	2013	5.7937778859125615	-9.586493235756276	1981388
1981553	AI	on storing and changing shape information	1978	5.727480043255308	-7.988885637257915	1981580
1981835	Graphics	online interactive 4d character animation	2015	5.986185241347297	-9.552152620080015	1981862
1982021	Logic	evolving driving controllers using genetic programming	2009	4.407918483904896	-8.252815722791981	1982048
1982442	AI	using rules for creativity in visual composition	2008	5.852926925261892	-8.109589828123182	1982469
1982536	DB	designing a bim-based serious game for fire safety evacuation simulations	2011	6.176803361803856	-8.49609878897245	1982563
1982688	Visualization	virtual reality technology for military and industry training programs	2013	5.19609602821333	-9.046796420060057	1982715
1983821	Graphics	pixelating vector line art	2012	5.843920891288991	-9.290822976410304	1983848
1984488	Graphics	behavior-friendly graphics	1999	5.663635233434559	-9.639679552639935	1984515
1984838	AI	exploring player trace segmentation for dynamic play style prediction	2015	4.8417429905312925	-8.447585351244081	1984865
1985009	Robotics	ciga: a middleware for intelligent agents in virtual environments	2011	4.63455583711787	-8.80901258811847	1985036
1985200	PL	an interactive installation for the architectural analysis of space and form in historical buildings	2014	5.8741581818529065	-8.93780358068997	1985227
1986202	AI	dynamic social planning and intention revision in generative story planning	2010	5.308263332541398	-8.011445776531206	1986229
1986283	Graphics	"""tippett studio muscle system and skin solver on """"hellboy"""""""	2004	5.7967449663470525	-9.300753517842852	1986310
1986742	HCI	music generation using cellular models	2012	5.55173994860694	-8.467963448445277	1986769
1988217	HCI	table-top spatially-augmented realty: bringing physical models to life with projected imagery	1999	5.51630055704174	-9.772423467273756	1988244
1988650	HCI	the eventscope remote science operations tool: using a visualization of a remote location as an interface for robotic exploration	2005	4.593423364029912	-9.402822344633893	1988677
1988807	HCI	ped: pedestrian environment designer	2016	5.094088699633396	-9.444206665182227	1988834
1988826	Visualization	utilization of open source tools in assembling process with application of elements of augmented reality	2011	5.666010891062559	-9.710530683699297	1988853
1990103	HCI	projection mapping technologies for ar	2016	5.890166408115804	-9.101861038844753	1990130
1991923	HCI	graphical perception in animated bar charts	2016	6.272631834282912	-9.355964332287146	1991950
1992820	Vision	collego: an interactive platform for studying joint action during an ecological collaboration task	2016	4.622026960357807	-9.596994073704817	1992847
1992859	HCI	interacting with microseismic visualizations	2013	5.935148166595359	-9.647543749792565	1992886
1992908	Robotics	experimental designs for cross-cultural interactions: a case study on affective body movements for hri	2012	5.149798404115431	-8.519374568853452	1992935
1993094	AI	what the logs can tell you: mediation to implement feedback in training	2000	4.418982809849749	-8.442123033612294	1993121
1994070	DB	simulation of baseball pitching and hitting on virtual world	2011	4.4345802182051015	-9.7965286680111	1994097
1994209	HCI	crowd-sourcing design: sketch minimization using crowds for feedback	2012	6.2861009295191845	-9.005892034278023	1994236
1994496	AI	evaluation of starcraft artificial intelligence competition bots by experienced human players	2016	4.545739695442667	-7.930459174681351	1994523
1995069	Robotics	observations of a science team during an advanced planetary rover prototype field test	2005	4.739763646671978	-9.684548077046555	1995096
1996880	HCI	a distributed framework for scalable large-scale crowd simulation	2007	4.730809732410892	-8.769557930639461	1996907
1997179	Visualization	reconstruction of monumental painting of the church on nereditsa hill in the city novgorod the great: methodology of painting and virtual reconstruction combination	2012	6.21185402471992	-8.205718028241165	1997206
1997461	Vision	augmented reality in a remote tower environment based on vs/ir fusion and optical tracking	2018	4.58484218173027	-9.549183115098472	1997488
1997534	HCI	an empirical evaluation of evaluation metrics of procedurally generated mario levels.	2015	5.4335575973449375	-8.199421112921563	1997561
1997750	Robotics	a flexible and simplified 2d environment for evolving autonomous virtual creatures	2015	5.265188328019278	-8.706819896607922	1997777
1998331	HCI	virtual exploration of underwater archaeological sites: visualization and interaction in mixed reality environments	2008	6.246251560554083	-9.190380161567523	1998358
1998548	Graphics	automatic drafting systems: an effective person-machine interface	1976	6.247263710166543	-8.655184348292119	1998575
1998749	Graphics	dali! - drawing animated lines!	1997	6.116812624903637	-8.961671341952734	1998776
1998770	AI	a command language for taskable virtual agents	2010	4.794072180768215	-8.778973329166107	1998797
1998920	Vision	3d-scene modelling of professional gestures when interacting with moving, deformable and revolving objects	2016	5.415431731993314	-9.650954320863331	1998947
1999074	NLP	dynamic generation of dilemma-based interactive narratives	2007	5.4398695642559405	-8.32202044936671	1999101
1999092	ML	anticipatory system for t-h-c dynamics in room with real and virtual sensors	2016	4.783209155378302	-9.132897386416811	1999119
1999947	Graphics	not just decoration: quality graphics for the web	1996	6.28587311507951	-8.234858379282992	1999974
2000140	Robotics	a motivational architecture to create more human-acceptable assistive robots for robotics competitions	2016	4.6046380669710985	-8.763343712578981	2000167
2000516	Visualization	dynamic scenario adaptation balancing control, coherence and emergence	2013	4.882625034363691	-8.64600587208755	2000543
2000630	Graphics	the cosmic spiderweb and general origami tessellation design	2018	5.930431488788625	-8.474687583673315	2000657
2000782	AI	intentional processing as a key for rational behaviour through natural interaction	2006	4.950281697977549	-8.695227980145162	2000809
2000913	Graphics	analysis and transfer of photographic viewpoint and appearance	2009	5.356853772507326	-9.271913521970543	2000940
2001355	HCI	evaluation of using mobile devices for 3d reconstruction of cultural heritage artifacts	2018	6.1005721263437245	-8.404664571607276	2001382
2001938	HCI	bridging the gap between visual exploration and agent-based pedestrian simulation in a virtual environment	2012	4.87336027993325	-8.956616559449678	2001965
2003072	Graphics	mesh skinning technique for intelligent animated characters in computer games	2001	5.559599956510673	-9.231690599830287	2003099
2003576	AI	agent cooperation and collaboration	2006	4.544435296894807	-8.457942052957772	2003603
2004049	Visualization	double-sided 2.5d graphics	2013	5.544171382168499	-9.774330891473612	2004076
2004142	Graphics	geometry simulation for feature films.	2010	5.612627023125316	-9.312346813064206	2004169
2004168	Graphics	diorama engine: a 3d video storyboard editor for 3d computer animation	2002	5.896860289512836	-9.543792236207123	2004195
2004192	Graphics	seamless integration of initial sketching and subsequent detail editing in flower modeling	2006	5.9482292815384445	-9.039402527614053	2004219
2005857	HCI	drawing venn diagrams	2002	5.7662194035944285	-9.734777566209004	2005884
2006811	HCI	hyper-paint: a possible software-toy	2005	6.001281581051044	-9.686784791704953	2006838
2006873	Graphics	an interactive graphic and process controlled system for composing and sampling loom constrained designs	1973	5.849173089393745	-9.234204162026284	2006900
2006932	AI	bayesian networks: real-time applicable decision mechanisms for intelligent agents in interactive drama	2010	4.8403873373861535	-8.13631277861068	2006959
2007781	AI	eden: an evolutionary sonic ecosystem	2001	4.786137707919613	-7.986828883342655	2007808
2007823	HCI	augmented reality agents in the development pipeline of computer entertainment	2005	6.140628819737043	-9.664351689303288	2007850
2008275	AI	strategies for solving the n-goal problem	2004	4.5769340040891535	-7.964749760407237	2008302
2008540	Visualization	a new animation approach for visualizing intelligent agent behaviours in a virtual environment	2002	4.816690681637197	-9.771397325548866	2008567
2009051	AI	priming dynamic-kinematic routines using spatial language	2015	4.40909880738763	-9.480109518273892	2009078
2009165	Robotics	an inexpensive stereoscopic vision system for robots	1984	4.713712714871317	-9.084204692449664	2009192
2009528	EDA	an investigation of function based design considering affordances in conceptual design of mechanical movement	2009	5.843336248286952	-8.846542680371341	2009555
2009783	HCI	copycad: remixing physical objects with copy and paste from the real world	2010	5.776543065094074	-9.720269726019144	2009810
2010344	Theory	the exact string matching problem: a comprehensive experimental evaluation	2010	5.0222504636956815	-8.204535752036254	2010371
2010646	Visualization	virtual stonehenge: sunrise on the new millennium	1998	6.3055613498398175	-7.967473600688684	2010673
2010709	Visualization	modeling dynamic perceptual attention in complex virtual environments	2005	4.724096735751517	-9.123882626628475	2010736
2010887	Visualization	creativity enhancement of painterly rendering using a suggestive interface	2018	5.825116016101122	-9.352247400149858	2010914
2012091	Vision	assisted surface redesign by perturbing its point cloud representation	2018	5.3674068596368185	-8.70216968978755	2012118
2012916	Robotics	interactive task learning	2017	4.5994022502990815	-8.531433713210916	2012943
2013296	AI	a real-time blackboard system for interpreting agent messages	2000	4.485291914595393	-8.583949250421355	2013323
2014128	Robotics	optical triangulation-based microtopographic inspection of surfaces	2012	5.981600189922512	-8.154223402142293	2014155
2014975	Graphics	a production tool for terrain generation	2005	5.856476819532231	-8.86022822253093	2015002
2015283	Graphics	"""ikea, """"t-shirts"""""""	2015	5.338775377963674	-9.724234174055699	2015310
2015398	AI	revisiting the el farol problem: a cognitive modeling approach	2012	4.555363104538259	-8.051798752445118	2015425
2017055	HCI	automatic extraction of the passing strategies of soccer teams	2015	4.481719972994911	-8.409639158047932	2017082
2018086	HCI	see in 3d: state of the art of 3d display technologies	2015	5.4496504312341605	-9.672233779855214	2018113
2018129	Visualization	image compositing based on virtual cameras	1998	5.763464904431404	-9.658772186298519	2018156
2018164	HCI	petica: an interactive painting tool with 3d geometrical brushes	2010	5.7765767925027705	-9.494450592514537	2018191
2018406	AI	reasonable perception: connecting vision and language systems for validating scene descriptions	2018	5.663624994958237	-9.38842866242048	2018433
2019189	AI	constructing a human-like agent for the werewolf game using a psychological model based multiple perspectives	2016	4.990691646600097	-8.084831798707826	2019216
2019492	Robotics	application of extended artificial physics optimisation in product colour harmony design	2016	5.3637713238490505	-7.974113470931648	2019519
2020389	Vision	making of the superpunch	2005	5.7716234015364725	-9.115710377650595	2020416
2021699	PL	what makes a production renderer in 2016	2016	6.066703357794138	-8.890453206003249	2021726
2022165	Visualization	designing training virtual environments supported by cognitive agents	2018	4.964640193084977	-8.874641202144616	2022192
2022443	Graphics	the form of sound through hybrid materials	2016	5.900772204674256	-9.506063534982657	2022470
2022645	Visualization	cinema as large as life: large-scale light field cinema system	2017	5.699738306572603	-9.558236179015434	2022672
2023831	Robotics	shaping naive users' models of robots' situation awareness	2007	4.432719402977825	-9.490239700359977	2023858
2024598	HCI	may: my memories are yours	2010	5.250364389619444	-7.962739138591945	2024625
2024956	Visualization	validating acoustical simulations in bell labs box	2002	5.589588473857086	-9.637877216948963	2024983
2025853	Graphics	how a csg-based raytracer saves time: lighting and scripting for ice age	2002	5.765710233330872	-9.289855553919066	2025880
2026389	AI	the intelligent use of space	1995	5.182373601522563	-8.352608180720686	2026416
2026756	HCI	display terminals can help people to use computers	1973	6.2336609290470815	-9.32736933981699	2026783
2026767	Graphics	experiments in the use of game technology for pre-visualization	2008	6.089048579534397	-9.103105003393813	2026794
2027360	AI	emotional pathfinding	2004	4.847782584817921	-8.495100918007834	2027387
2028443	Robotics	uncovering emotional memories in robot soccer players	2015	4.518402202100218	-8.208222558796995	2028470
2029201	ML	panocam and postvis for the chicago chase in jupiter ascending	2015	5.90839791107391	-9.382483821584582	2029228
2029487	AI	implicit robot-human communication in adversarial and collaborative environments	2018	4.912168557277413	-8.074375654059011	2029514
2031175	HCI	a study of stereoscopic 3d technology development trends on mobile	2012	5.442420490600949	-9.60097484354185	2031202
2031557	Robotics	direct off-line robot programming via a common cad package	2013	5.061543722861245	-9.532197794431733	2031584
2032123	Robotics	adding conscious aspects in virtual robot navigation through baars-franklin's cognitive architecture	2015	4.4510724544807925	-8.192734731093202	2032150
2032148	HCI	designing effective multimodal behaviors for robots: a data-driven perspective	2013	4.683580051134202	-9.061881424315267	2032175
2032437	AI	social animation in complex environments	2007	4.731535590465276	-8.287267674125639	2032464
2032530	Graphics	creating realistic cg honey	2007	5.59373888644841	-8.957603054823894	2032557
2033739	AI	teaching bayesian behaviours to videogame characters	2003	4.98165368134434	-8.121511193486937	2033766
2034378	AI	fight or flight: evolving maps for cube 2 to foster a fleeing behavior	2017	4.563727744348709	-8.08681176510354	2034405
2034604	Graphics	non-photorealistic rendering and sketching supported by gpu	2018	6.0905501225559595	-8.753370371344397	2034631
2034920	Robotics	dynamic difficulty adjustment in 2d platformers through agent-based procedural level generation	2015	4.740943587240043	-8.090363008565324	2034947
2034929	Graphics	transformers: the game	2008	5.867475186775034	-9.262698220917127	2034956
2035331	HCI	blinks of exile	2002	4.514102740746111	-9.019124555132588	2035358
2035640	Graphics	a fast and accurate light reflection model	1992	5.8822791389252576	-9.074360688577238	2035667
2035737	AI	ontology-based procedural modelling of traversable buildings composed by arbitrary shapes	2016	5.803169348162156	-8.5813293952175	2035764
2036689	HCI	cooperation in human-agent systems to support resilience: a microworld experiment	2016	4.841288922574083	-8.262523185650968	2036716
2037492	AI	learning from demonstration to be a good team member in a role playing game	2013	4.421748658103949	-8.446364212720766	2037519
2037955	Visualization	digital typography: 25 years of text rendering in computer graphics	2018	6.247779172774682	-8.610418170199278	2037982
2038278	AI	bach in a box: the evolution of four part baroque harmony using the genetic algorithm	1994	5.335924286462274	-8.143835123689966	2038305
2039267	AI	multiagents based modelling in graphical user interfaces	1997	4.7959206329150055	-8.864369140151805	2039294
2040185	Graphics	simulation theory and anticipation for interactive virtual character in an uncertain world	2011	4.378487653712761	-8.879598266220569	2040212
2040264	Visualization	simulation of genetic inheritance in the generation of virtual characters	2010	4.455196775441382	-8.044222346345794	2040291
2041575	NLP	synthesizing ornamental typefaces	2017	5.632143812894408	-9.586548389901061	2041602
2041887	AI	recognition and integration of dimension sets in vectorized engineering drawings	1997	5.889215914672732	-8.59628289090666	2041914
2041924	Robotics	emergence of affective behaviors through physical interaction between human and mental commit robot	2001	4.6750068021760125	-9.328527967132855	2041951
2042015	HCI	how can 3d game engines create photo-realistic interactive architectural visualizations?	2017	6.032138702472187	-9.493106225789392	2042042
2042132	Graphics	loving vincent: guiding painters through 64.000 frames	2016	5.963190562414862	-9.321215964851493	2042159
2042310	HCI	the river	2012	6.278784748808105	-8.76428114133224	2042337
2042587	Visualization	the training of artists in computer graphics	1986	6.134513536402269	-8.49608495822366	2042614
2043042	Visualization	garment capture from a photograph	2015	5.008346485516177	-9.766722755024473	2043069
2043512	SE	automated digital photogrammetry: a valuable tool for small-scale geomorphological research for the non-photogrammetrist?	2002	6.227148042373222	-8.070185119432683	2043539
2045110	Robotics	music composition using harmony search algorithm	2007	5.413475772681889	-8.59439648112038	2045137
2045906	Robotics	structured learning of a partner robot based on perceiving-acting cycle	2003	4.404099810644022	-8.754133649037843	2045933
2046040	AI	predictability in human-agent cooperation: adapting to humans' personalities	2015	4.864047689779033	-8.412105192887378	2046067
2046543	Graphics	real-time crowd visualization in point-cached pipelines	2015	5.473570604436027	-9.531986808415839	2046570
2046739	Visualization	successes and challenges on using vr in product design and engineering	2009	6.052908255016378	-9.640126769529877	2046766
2046933	Theory	programming in polygon r&d: explorations with a spatial language ii	2006	6.122876234220648	-8.149805959274596	2046960
2047206	Graphics	animation through space and time based on a space deformation model	1993	5.915326598662939	-9.006519983884676	2047233
2047285	Visualization	example-based floral pattern generation	2009	5.902596360228977	-9.17577597445451	2047312
2048339	Visualization	neozoa: an immersive, interactive sandbox for the study of competing	2016	4.467021680462383	-8.068252870966715	2048366
2048596	HCI	concept through creation: establishing a 3-d design process in the footwear industry	2017	5.966225920355464	-9.613384142605515	2048623
2049717	Graphics	a user interface for simulating calligraphic pens and brushes	1988	6.0218364171612215	-9.336701443396565	2049744
2050500	Robotics	social constraints on animate vision	2000	4.580037016100051	-9.040436735491367	2050527
2050675	Robotics	enhancing a robot-centric virtual reality system towards the simulation of fire	2003	5.0472626432049035	-8.559275088489953	2050702
2050703	DB	million-point sculptures	1991	5.9441543065326865	-8.114720665147967	2050730
2050718	HCI	functionally based augmented sculpting	2005	6.236522741041893	-8.564755335576939	2050745
2051359	HCI	intelligent lighting for a better gaming experience	2005	5.3580574380669965	-9.69486493158748	2051386
2051776	Visualization	asymmetric distributed animation rendering system based on wan	2010	6.054626485760975	-8.946999502068962	2051803
2051929	AI	pattern-based ai scripting using scriptease	2003	6.190439082463009	-8.761106342766743	2051956
2052206	Graphics	building blocks	2007	5.445837423993972	-9.421578092973366	2052233
2052466	Graphics	an interactive environment for visualizing and animating algorithms	1997	6.2952050464545675	-8.264998676034487	2052493
2052695	Graphics	the state of the art in interactive global illumination	2012	5.9620309385162304	-8.412861492167211	2052722
2052812	Graphics	several considerations with respect to the future of digital photography and photographic printing	2001	4.956214459921264	-9.659307953370922	2052839
2053942	AI	agent-based players for a first-person entertainment-based real-time artificial environment	2004	4.455860657218056	-8.493970076310415	2053969
2054554	AI	moana: performing water	2017	5.667314299608336	-9.104534718842002	2054581
2054758	HCI	immersive tangible geospatial modeling	2016	6.075818057527742	-9.58459502983641	2054785
2055443	Graphics	behavior authoring for crowd simulations	2011	5.732311975944011	-8.694963222787159	2055470
2056550	AI	interactive sketch design recognition system using evolutionary techniques	2011	5.476355970508221	-9.257194508246213	2056577
2057534	Graphics	movie-maps: an application of the optical videodisk to computer graphics	1980	6.271484040388953	-8.673624171952737	2057561
2057960	HCI	mixed-initiative design of game levels: integrating mission and space into level generation	2015	5.203374686972571	-8.193209992426628	2057987
2059083	Vision	representation of cultural objects by image sets with directional illumination	2015	5.703988306740979	-9.633480086475704	2059110
2059793	AI	grounding emotions in robots - an introduction to the special issue	2016	5.374990530871654	-7.9660038289406785	2059820
2060454	Logic	declarative specification of ambiance in vrml landscapes	2004	6.232239215854423	-8.972760650114793	2060481
2060530	HCI	mist: an interactive storytelling system with variable character behavior	2010	5.053266910312362	-8.675284605939009	2060557
2062091	Robotics	knowledge-based interactive robot: system architecture and dialogue manager	2004	4.429986136154176	-8.785247652182251	2062118
2062341	Graphics	magic zoetrope: representation of animation by multi-layer 3d zoetrope with a semitransparent mirror	2018	5.584813001930367	-9.318693620560015	2062368
2063024	HCI	a survey of sketch-based 3-d modeling techniques	2009	6.061604814499124	-8.991025803196504	2063051
2064099	Visualization	a desktop vr prototype for industrial training applications	2004	5.6210762166274	-9.247310704524098	2064126
2064284	Visualization	a quality control mechanism for networked virtual reality system with video capability	1998	5.764175838061168	-9.76939825270556	2064311
2064602	Robotics	autumn's egress	2004	6.118907449585267	-9.145806419917504	2064629
2065410	Graphics	development and realization of system of digital image processing based on matlab platform	2014	6.03904962362876	-9.085515486514614	2065437
2065449	HCI	implementing understanding of photography principles to create effective photorealistic 3d rendering	2003	5.9994910291871415	-9.373518043614792	2065476
2065681	Robotics	cognition, control and learning for everyday manipulation tasks in human environments	2008	4.7801016865814905	-8.149151445875033	2065708
2065738	AI	ambient sound spaces	2010	5.1075524800079215	-8.620415034825793	2065765
2067614	Robotics	geometric modelling systems for mechanical design and manufacturing	1978	4.626785486286262	-8.840120673850755	2067641
2067890	EDA	texture synthesis based simulation of secondary agents	2008	5.959889517571955	-9.464869270604355	2067917
2068457	NLP	mapping instructions to actions in 3d environments with visual goal prediction	2018	5.656650632315091	-8.37889537675904	2068484
2068764	Graphics	cad on the world wide web: virtual assembly of furniture with beaver	1999	5.896739278798129	-9.55118182945348	2068791
2068867	HCI	rhythm-based level generation for 2d platformers	2009	6.067157932913776	-9.332133010034198	2068894
2068958	AI	using real life incidents for creating realistic virtual crowds with data-driven emotion contagion	2018	4.98286665433988	-9.192132019258807	2068985
2069682	HCI	a data base for editing printed circuit artwork in an interactive crt environment	1975	6.145551535774263	-8.653141565858352	2069709
2070568	Vision	an automatic generative method for stylus style cg	2009	5.859560104175214	-9.6196898943297	2070595
2071166	HCI	motion amplifiers: sketching dynamic illustrations using the principles of 2d animation	2016	5.589373662471676	-9.58480879703282	2071193
2071391	Vision	using aesthetic measures to evolve art	2010	5.387726216261625	-8.426421419809719	2071418
2071539	AI	toward supporting stories with procedurally generated game worlds	2011	5.357930975800911	-8.490561303303316	2071566
2071960	HCI	algorithmic composition in contrasting music styles	2003	5.6463205075880225	-8.59395861924348	2071987
2072198	HCI	using bdi to model players behaviour in an interactive fiction game	2016	5.117526373485251	-8.249096286052584	2072225
2072905	Visualization	hybrid teams in virtual environments: samurai joins the training team	2009	4.974725412359215	-9.515064174684072	2072932
2073295	HCI	designing a creature believability scale for videogames	2017	5.058608922144443	-8.26424862652158	2073322
2074079	AI	improved automatic caricature by feature normalization and exaggeration	2004	5.8809679050663854	-8.839012911620516	2074106
2074930	Visualization	the virtual windtunnel: a high-performance virtual reality application	1993	6.132991078751246	-8.439427746961742	2074957
2074937	Vision	silhouettes of jazz	2009	5.908507535540309	-9.757049875691784	2074964
2076645	Visualization	augmenting spatial information processing for 3-d visualization	2008	6.08377710954663	-8.533808836565095	2076672
2077212	Robotics	creation and cognition for humanoid live dancing	2016	4.925962424935407	-9.48645066877944	2077239
2077757	Visualization	a hybrid modeling method for dynamic liquid simulation	2016	5.531946483361983	-9.04350578171088	2077784
2078246	Graphics	open platforms for computational photography: technical perspective	2012	5.5696507941693225	-9.383470678001762	2078273
2079960	HCI	simulation and virtual prototyping of tangible user interfaces	2014	6.2732652710049726	-9.551620424330663	2079987
2082522	Graphics	a novel technique for color pencil sketching rendering based texture	2007	5.739518927843607	-9.408296168067661	2082549
2083474	Graphics	towards a feature-based interactive system for intelligent font design	1999	5.953627519670129	-8.915513037580517	2083501
2085146	HCI	femvis: an interactive visualization tool for mechanical analysis	1991	5.383678663565018	-9.22236818581916	2085173
2085325	Embedded	a multi-objective differential evolution algorithm for 4-voice compositions	2011	5.4867195237681905	-8.630455613153126	2085352
2086640	HCI	an hri approach to learning from demonstration	2014	4.56826885188065	-9.012093585468024	2086667
2087031	Robotics	improvement proposals to intrinsically motivational robotics	2012	4.627825163367606	-8.021372949352616	2087058
2087451	NLP	"""wehrli 2.0: an algorithm for """"tidying up art"""""""	2012	5.8514948236796025	-8.79888091152084	2087478
2088624	AI	opponent-based tactic selection for a first person shooter game	2011	4.688798556418124	-8.156936761814334	2088651
2088852	Visualization	3d object implementation on bicycling at ui virtual reality application based on 3d-gamestudio	2009	5.6579169868959145	-9.71684996934756	2088879
2088875	Graphics	dspobj - system for display of multiple sets of three-dimensional data	1978	5.711412963031672	-9.447244526303649	2088902
2090667	AI	predicting performance in team games - the automatic coach	2011	4.601361118394092	-8.241670152905197	2090694
2091693	Graphics	true-colour images and iterated function systems	1998	5.567393877567667	-8.463514948994769	2091720
2091805	HCI	image-based low-cost systems for automatic 3d recording and modelling of archaeological finds and objects	2012	6.259841159576478	-8.156188952066955	2091832
2091977	HCI	a new angle on cheap lcds: making positive use of optical distortion	2011	5.866169473326687	-9.683039940644996	2092004
2092123	Visualization	judson rosebush on computer graphics and animation	2014	6.3061178723066735	-8.878691333947891	2092150
2092232	AI	evaluating multimodal human-robot interaction: a case study of an early humanoid prototype	2010	4.374302954392018	-9.52223735355291	2092259
2093410	Robotics	visualizing thermal information and knowledge creation in grain storage bin based on three-dimensional (3d) interface model and computer graphic techniques	2016	6.097319196140771	-8.526202383952466	2093437
2094217	AI	towards melodic extension using genetic algorithms.	2001	5.30535386707931	-8.408200770031684	2094244
2094610	AI	designing believable interaction by applying social conventions	1999	5.079737717693198	-8.652206952839503	2094637
2095273	Vision	microscopic structural modeling of colored pencil drawings	1997	6.036810560511443	-8.1492347536122	2095300
2095361	HCI	map morphing: making sense of incongruent maps	2004	5.774371582394432	-9.77626837680818	2095388
2095693	Visualization	veaar: virtual environment for archaeological artefacts restoration	2017	5.841570552135928	-9.779710547140514	2095720
2096332	HCI	the development of a telerobotic rock breaker	2009	5.6574470392805125	-9.665696935405677	2096359
2096545	EDA	"""""""computer generated artwork - the aide system"""""""	1972	6.166867825289228	-8.568763072040074	2096572
2096915	Graphics	geda-3d a middleware useful to handle the evolution in behavioral animation -based virtual worlds with a multi-agent architecture	2004	4.766916492923082	-8.758484453208604	2096942
2097440	Web+IR	interaction forms, agents and tellable events in everquest	2002	5.2554484310135585	-8.331267244408888	2097467
2098583	AI	instructing animated agents: viewing language in behavioral terms	1995	6.010971607629569	-9.559960996068632	2098610
2099424	OS	bin-ary: detecting the state of organic trash to prevent insalubrity	2015	5.573851365155095	-8.906786499543882	2099451
2099571	Visualization	hand-painted animation with intelligent brushes	2008	6.059735790261422	-9.316234523441905	2099598
2099857	Vision	scientists develop camera made of fabric	2010	5.120827971982575	-9.489559580947633	2099884
2099872	AI	research in human-level ai using computer games	2002	4.4403353270034405	-8.35261945922759	2099899
2100035	HCI	sketching 3d models with 2d interaction devices	1994	5.985681117004592	-8.914324549781432	2100062
2100147	Graphics	autonomous animated interactive characters: do we need them?	1997	5.051840971227958	-8.828011866981731	2100174
2101426	Theory	remember that time? telling interesting stories from past interactions	2015	5.344493543833263	-7.977243781452949	2101453
2101620	Robotics	cad module for knitting patterns design	2010	6.137622109283576	-9.471203411680436	2101647
2101807	Graphics	efficient real-time shadows	2013	6.245107432485769	-8.461583945361916	2101834
2103200	Graphics	watercolor woodblock printing with image analysis	2018	5.617471804769769	-9.336729055928178	2103227
2103204	AI	learning to blend computer game levels	2016	5.19123700978282	-8.261810755144175	2103231
2103908	Robotics	time and unmanned aerial vehicles fly [from the editor's desk]	2006	4.485901722347311	-9.131715980700276	2103935
2104364	HCI	translations 2.2013	2013	5.9094883891859435	-9.637435741867842	2104391
2104748	AI	spice it up! enriching open world npc simulation using constraint satisfaction	2014	4.708471097087468	-8.945466778569571	2104775
2104910	Graphics	negas: logo based authoring environment for 3d computer animation	2006	5.970809147419328	-9.399661856462624	2104937
2106133	Robotics	facebots: robots utilizing and publishing social information in facebook	2009	4.5834604707896816	-9.15380970654732	2106160
2106910	Graphics	high dynamic range - a gateway for predictive ancient lighting	2009	6.1750088765643	-8.194888926651213	2106937
2107493	Visualization	rear-projecting virtual data onto physical terrain: an exercise in two senses being better than one	1998	6.302440500048702	-8.609408539883143	2107520
2108342	Robotics	how humans behave and evaluate a social robot in real-environment settings	2010	4.857365728620861	-8.76878815819998	2108369
2109050	Visualization	pascal: physics augmented space canvases for animating locomotion	2010	6.061721035967373	-9.639302788490662	2109077
2109557	Robotics	shape analogies	2002	5.78028234967221	-9.430324690020354	2109584
2110023	Graphics	t1000 effects driven character performance - terminator: genisys	2015	5.963614112042627	-8.937636930089123	2110050
2110388	AI	a cognitive and affective architecture for social human-robot interaction	2015	4.785887116205628	-8.517000890100894	2110415
2110448	AI	optimizing visual properties of game content through neuroevolution	2011	5.17795788653831	-8.202277990184928	2110475
2110727	AI	capturing the essence: towards the automated generation of transparent behavior models	2015	5.341868962216324	-8.25956924300074	2110754
2111970	Robotics	exploring movement qualities in reciprocal engagement	2014	5.275512445953024	-8.408703402961164	2111997
2112433	AI	a cbr module for a strategy videogame	2005	4.954373350799003	-7.945057251887728	2112460
2113636	Graphics	message in a bottle: stylized rendering of sand movies	2007	5.607980188455967	-9.42550380826514	2113663
2113816	Graphics	modeling behaviors of interactive objects for real-time virtual environments	2002	6.152050398043477	-9.735738322995916	2113843
2114061	Visualization	three-dimensional computation visualization	1993	6.154686292967119	-8.684812404464816	2114088
2114569	AI	a multi-agent cellular automata system for visualising simulated pedestrian activity	2000	4.599641782140472	-8.499224013481259	2114596
2115283	Graphics	drawcad: mouse-sketch-based engineering drawing	2013	6.077448956629379	-9.757870469473868	2115310
2116333	DB	modeling virtual worlds in databases	2003	5.6900729862061565	-9.313209477947566	2116360
2116429	Graphics	strokeaggregator: consolidating raw sketches into artist-intended curve drawings	2018	5.495525533827173	-9.174803745204194	2116456
2116689	Graphics	structure from silhouettes: a new paradigm for fast sketch-based design of trees	2009	5.245175336483256	-9.429833730203352	2116716
2116778	AI	an evaluation of models for predicting opponent positions in first-person shooter video games	2008	4.402986510628584	-8.229767340208639	2116805
2117197	AI	fuzzy tactics: a scripting game that leverages fuzzy logic as an engaging game mechanic	2014	4.876472964987715	-8.376028563657151	2117224
2117976	ECom	using evolutionary algorithms to find the melody of a musical piece	2016	5.7846999335435	-8.668318246858764	2118003
2118160	DB	constructing the virtual jing-hang grand canal with onto-draw	2012	6.124255074716479	-9.009680173866915	2118187
2118801	HCI	free-sketch recognition: putting the chi in sketching	2008	5.94192109053305	-9.571776441928279	2118828
2119076	Graphics	the interactive multi-media computer system using sgi and next/ispw computers	1997	5.400584161076248	-9.664184478954454	2119103
2119452	Vision	a method for fitting measured car paints to a game engine's rendering model	2018	5.812787438831401	-8.505006029069946	2119479
2119797	Graphics	spyke3d: a new computer games oriented bdi agent framework	2013	4.8527431257709415	-8.376774350716182	2119824
2119967	Vision	a digital training system for freehand sketch practice	2007	6.2018238844707225	-9.5441558468231	2119994
2120826	AI	conversational informatics and human-centeredweb intelligence	2007	5.241980273539578	-8.048878139228309	2120853
2120919	DB	automatic classification of semantic concepts in view specifications	1996	5.698408566434572	-8.304020500092097	2120946
2121347	AI	the instructible agent lokutor	2000	4.719031444088753	-8.825559621272875	2121374
2121396	Vision	nomadic perspectives: spatial representation in oriental scroll painting and holographic panoramagrams	2006	5.605150186155609	-9.637442481877537	2121423
2121519	AI	machine learning in digital games: a survey	2008	4.518973704008394	-8.147659956519794	2121546
2123280	AI	autonomous agents in user interfaces	1999	4.585403299762907	-8.244616527730756	2123307
2123744	Theory	computer simulation	1966	4.894760083053416	-8.801732788809854	2123771
2123866	AI	multimodal response generation in gis	2004	6.236967185421648	-7.8920296516828525	2123893
2124018	ML	top gum	2002	5.936337710369678	-9.25524377890662	2124045
2124041	Graphics	recovering historical film footage by processing microtomographic images	2016	5.854725676919121	-8.774819774436681	2124068
2124046	HCI	an easy-to-use 3d visualization system for planning context-aware applications in smart buildings	2014	6.282136204043348	-9.42870981177138	2124073
2124591	HCI	"""""""use of 3d point clouds in geohazards"""" special issue: current challenges and future trends"""	2016	6.080011075552227	-7.928667267112287	2124618
2127265	AI	modeling the spatial behavior of virtual agents in groups for non-verbal communication in virtual worlds	2009	4.61837999876526	-8.847886440688079	2127292
2127422	AI	towards modeling agent negotiators by analyzing human negotiation behavior	2017	4.835791366515452	-8.41765785105729	2127449
2127884	Robotics	taking location modelling to new levels: a map modelling toolkit for intelligent environments	2006	5.9515171370151565	-8.997565594274864	2127911
2127972	Graphics	sampled 3d models for ch applications: a viable and enabling new medium or just a technological exercise?	2008	6.187521109299335	-8.303293168874196	2127999
2128217	Graphics	recreating early islamic glass lamp lighting	2009	6.054561186425903	-8.423878123400982	2128244
2129511	Vision	hierarchical structure of human action selection - an update of newell's time scale of human action	2014	4.482132246134126	-7.897791370503477	2129538
2130074	Graphics	rtsg: ray tracing for x3d via a flexible rendering framework	2009	6.267711882942946	-8.835236132833053	2130101
2130164	HCI	modeling-in-context: user design of complementary objects with a single photo	2010	5.4860608471958585	-9.78892262300702	2130191
2130832	Visualization	a platform to design and run dynamic virtual environments	2004	5.700721996388363	-9.212929373571914	2130859
2131082	HCI	lurch!: interactive rendering pipeline automation	2013	5.895209561641338	-7.962966419430858	2131109
2131277	Robotics	a generic cognitive architecture framework with personality and emotions for crowd simulation	2017	4.702455325125676	-8.613503549492258	2131304
2131855	HCI	immersive point cloud manipulation for cultural heritage documentation	2017	6.154540438494017	-8.11125943304699	2131882
2131920	Robotics	aria: an adaptive and programmable media-flow architecture for interactive arts	2004	5.002508467244578	-9.574753120704075	2131947
2131994	Visualization	gipsi: a framework for open source/open architecture software development for organ-level surgical simulation	2006	6.0950630260026575	-8.945036198964045	2132021
2132093	Graphics	production rendering acceleration techniques	2006	5.853405351730098	-9.1087947027032	2132120
2133285	AI	crossover of affective artificial intelligence between robotics simulator and games	2017	5.094479388531242	-8.202855026513486	2133312
2134670	Visualization	vrecko: virtual reality framework	2005	6.027676063841138	-9.725896333568977	2134697
2135218	Robotics	multiobjective exploration of the starcraft map space	2010	4.883327551116512	-8.17519130436458	2135245
2135566	Visualization	the impact of computer graphics	2000	6.273073568170712	-7.933974084196968	2135593
2135995	Vision	focus: clustering crowdsourced videos by line-of-sight	2013	6.076787035365558	-9.603339227790157	2136022
2136099	Vision	a physically-based particle model of emergent crowd behaviors	2003	4.948978718435226	-8.743188100587432	2136126
2138018	Graphics	creating light atlases with multi-bounce indirect illumination	2016	5.663841492033348	-9.377203296326641	2138045
2138375	HCI	large-scale graphics: digital nature and laser projection	2007	5.763109541905347	-9.11720339266601	2138402
2138414	Robotics	robot virtual assembly based on collision detection in java3d	2009	5.448630812025523	-9.002514583884354	2138441
2138816	NLP	human-guided evolutionary story narration	2018	5.7067062450539945	-8.073783790931085	2138843
2139310	Graphics	paleosketch: accurate primitive sketch recognition and beautification	2008	5.903299542658168	-9.383634331440312	2139337
2139914	Visualization	gvt: a platform to create virtual environments for procedural training	2008	6.1317308884906625	-8.792259684903435	2139941
2140124	HPC	visualization of supercomputer simulations in physics	1989	5.89070017723901	-9.183976610817837	2140151
2140203	HCI	rrt-based game level analysis, visualization, and visual refinement	2012	5.794932212162397	-8.326561284435726	2140230
2140289	Visualization	vrfx: a user friendly tool for the creation of photorealistic virtual environments	2007	5.767132273186794	-9.431033062644646	2140316
2140354	AI	conflict resolution and a framework for collaborative interactive evolution	2006	5.940587027448328	-8.092821187502691	2140381
2142153	AI	from reality to mind: a cognitive middle layer of environment concepts for believable agents	2004	4.961126073316703	-8.152455984474928	2142180
2142425	Visualization	realistic hair from a sketch	2007	5.0361066037008735	-9.697674219806194	2142452
2142637	AI	proposing of planning system for sports domain: a tool for professional coaches	2016	4.3772958976330205	-8.913298328070882	2142664
2143593	Graphics	techniques in computer art	1986	6.2157060502361885	-8.186316239835246	2143620
2143645	AI	improving narrative consistency in planning-based interactive storytelling	2007	5.531785303199628	-8.779247927718147	2143672
2144202	Graphics	the sorcerer's apprentice (panel): ubiquitous computing and graphics	1998	5.878918776498432	-9.806609161235553	2144229
2144857	HCI	digi-craft: a creative process in form-finding beyond the accuracy of 3d printing	2018	5.672493853475378	-9.696337447866556	2144884
2144895	Robotics	"""improvement of an interactive media system """"rakugacky"""""""	2016	5.700982931306533	-9.655438417087515	2144922
2145463	EDA	line to form to line - transformations between 2d and 3d in design and documentation	2002	5.97357775216762	-8.876675045682816	2145490
2145608	AI	a motivation-based mechanism to design behaviors	2010	4.6590731048098855	-8.463879719592477	2145635
2145908	HCI	real-time graphics in pixar film production	2016	6.027285768792944	-8.952638936650791	2145935
2146392	HCI	carma: content augmented reality marker	2013	5.599035586542778	-9.664178970748248	2146419
2147126	ML	eeglab, sift, nft, bcilab, and erica: new tools for advanced eeg processing	2011	4.7272736241671005	-9.790696253706926	2147153
2147363	Robotics	the user interface system for the robovolc exploration robot	2004	4.588703295282968	-9.469282927299355	2147390
2147894	DB	optimization of media processing workflows with adaptive operator behaviors	2007	4.887600247205526	-9.368818298256539	2147921
2147958	AI	layering techniques in fractal art	2000	6.038725817600183	-7.953967411347599	2147985
2148026	AI	human behaviour visualisation and simulation for automatic video understanding	2002	5.128905420394462	-8.895652703015662	2148053
2148397	AI	remote-brained robots	1997	4.646888299079301	-7.892394370361531	2148424
2149057	AI	artificial intelligence in three-dimensional computer animation	1986	5.780774338276312	-9.147113703671002	2149084
2149445	Visualization	virtual 3d puzzles: a new method for exploring geometric models in vr	2001	5.804734905470906	-9.69657517078743	2149472
2149531	Graphics	puppeteering 2.5d models	2016	5.388910949639846	-9.442212993679137	2149558
2150324	HCI	infotexture: incremental interfaces on mesh prototyping	2017	5.694184879882197	-9.61105292512678	2150351
2150406	Theory	fun with fonts: algorithmic typography	2014	6.12808662864653	-8.791565517352616	2150433
2150980	Graphics	rendering the darkness: glimpse on the lego batman movie	2017	5.726419575204598	-9.340616129238242	2151007
2151026	ML	automatic 3d object fracturing for evaluation of partial retrieval and object restoration tasks - benchmark and application to 3d cultural heritage data	2015	5.982268304545405	-7.945300540528628	2151053
2151348	Robotics	how could we model cohesiveness in team social fabric in human-robot teams performing under stress?	2012	4.70320220323938	-8.280748527417014	2151375
2151933	AI	who, how, where: using exemplars to learn social concepts	2013	4.511278619795272	-9.514559253452424	2151960
2152310	AI	modeling human-robot interactions as systems of distributed cognition	2014	5.185268612730202	-8.312462438784191	2152337
2152328	NLP	kille: a framework for situated agents for learning language through interaction	2017	4.514612709583206	-9.227003553552276	2152355
2152416	AI	state machines are child's play: observing children ages 9 to 11 playing escape machine	2009	4.8373727178986226	-8.482384599688585	2152443
2152428	AI	software agents and creating music/sound art: frames, directions, and where to from here?	2005	5.602990028234759	-8.266885185993447	2152455
2152600	HCI	structured design of interactive electronic technical manuals based on virtual reality means	2013	6.142937018087702	-8.764098709755109	2152627
2152836	Visualization	weavy: interactive card-weaving design and construction	2013	5.469679627807012	-9.598577069863738	2152863
2152892	AI	supporting the commander's information requirements: automated support for battle drill processes using r-cast	2011	4.5071789531116915	-8.363170171929129	2152919
2153215	AI	"""""""iago vs othello"""": an artificial intelligence agent playing reversi"""	2013	4.382896675960688	-8.016026860626752	2153242
2153917	HCI	an intelligent fighting videogame opponent adapting to behavior patterns of the user	2014	4.525074762375676	-8.056613355196417	2153944
2153948	Visualization	how many screens does a ct workstation need?	1994	5.0752582161959285	-9.258825190954084	2153975
2154242	Graphics	rule-based crowds: generation, animation, cloth and rendering of 15.000 unique human characters	2003	5.756368917021289	-9.128512713377509	2154269
2154349	EDA	a cad system for multi-style thermal functional design of clothing	2008	5.2850286678534655	-9.763774826173906	2154376
2154779	Robotics	framework for simulating the human behavior for intelligent virtual agents. part i: framework architecture	2004	4.573406688409551	-8.310047376400679	2154806
2154939	OS	taskprocessor: a pipeline execution framework and ide	2015	6.12986914127904	-8.880140311169555	2154966
2155183	HCI	orihedra: mathematical sculptures in paper	1997	6.181077625505222	-8.588600300479351	2155210
2155457	NLP	extracting semantic clusters from the alignment of definitions	2000	4.827442109638295	-9.181643840601776	2155484
2155764	AI	cognitive modeling of virtual autonomous intelligent agents integrating human factors	2009	4.7174381348305285	-8.31269216860939	2155791
2155835	Graphics	web-based constructive shape modeling using real distance functions	2005	6.198859031096305	-8.353469175372853	2155862
2155933	AI	a cognitive model for autonomous agents based on bayesian programming	2005	4.53236014392342	-8.393219212757844	2155960
2156337	AI	interactive configuration of restricted spaces using virtual reality and constraint programming techniques	2010	5.464091915891124	-9.70521826714606	2156364
2156615	HCI	genetic soundtracks: creative matching of audio to video	2013	5.52504116641484	-8.444638364394539	2156642
2157090	DB	navigation challenges in massively destructible worlds	2007	5.369708760086043	-8.921257006135928	2157117
2157558	Visualization	a tool for constructing 3d environments with virtual agents	2005	4.981744279386444	-9.387317754244208	2157585
2157719	Graphics	where do people draw lines?: technical perspective	2012	5.9522688021722185	-8.709582163046028	2157746
2157788	Robotics	discovering semantics from visualizations of film takes	2004	6.229051856767324	-9.360831899363037	2157815
2160156	AI	reasoning with geometry: predicting stress concentration factors	1990	5.281079997081021	-7.9582201975356925	2160183
2162256	HCI	solutions for time estimation of tactile 3d models creation process	2014	5.508331182229234	-9.37572638163176	2162283
2163257	Graphics	a generalized scene graph	2000	6.134253462274362	-8.396291658599846	2163284
2163700	Graphics	visualizing animation databases	2003	6.029534945537603	-9.486361790642677	2163727
2164003	HCI	volumetric effects in a snap	2011	5.993475499425199	-8.87357318876744	2164030
2164087	NLP	interactive and procedural modeling of featured chinese architectures	2015	5.92851391997946	-9.187959149665742	2164114
2164662	Graphics	procedural design of exterior lighting for buildings with complex constraints	2014	5.7343927002008215	-8.52726889419171	2164689
2164782	Graphics	hijackgl: reconstructing from streams for stylized rendering	2002	6.107873424234562	-9.162237610803938	2164809
2165046	AI	expectedness in human-robot collaboration: (extended abstract)	2016	5.101464511978097	-8.371296133790235	2165073
2166678	ML	predicting serves in tennis using style priors	2015	4.7699695000366225	-8.453700056116583	2166705
2166995	SE	design patterns applied for networked first person shooting game programming	2014	4.9867388621446365	-8.392727222636228	2167022
2167637	Visualization	design evaluation and modification of mechanical systems in virtual environments	2007	5.506263021421441	-9.43537515735883	2167664
2167704	Graphics	procedural petticoats in shrek 2	2004	5.8052940834400175	-9.4569386639635	2167731
2167957	NLP	an artificial-chemistry approach to generating polyphonic musical phrases	2008	5.439631894326729	-8.434248059412834	2167984
2168215	HCI	computational model of film editing for interactive storytelling	2011	6.0295208647792125	-9.772015268336007	2168242
2168851	Graphics	an accelerated remote graphics architecture for pdas	2003	6.2886916409001925	-9.255297938330644	2168878
2169184	Visualization	real-time collision detection for dynamic virtual environments	2005	6.078577939046307	-9.235255413715564	2169211
2170572	Graphics	interactive ga flock brush for non-photorealistic rendering	2012	5.471433721438244	-8.634104520773674	2170599
2170634	Robotics	realistic modeling of spectator behavior for soccer videogames with cuda	2011	5.508019089717188	-8.741461863800875	2170661
2171243	Graphics	gauguin: generating art using genetic algorithms and user input naturally	2007	5.692087660033453	-8.441444586659397	2171270
2171669	HCI	crowded collaborative virtual environments	1997	5.360608317124481	-8.500511920874091	2171696
2171769	DB	a survey of virtual ecosystems in generative electronic art	2008	5.709662199323522	-8.783276462092736	2171796
2172488	Visualization	realistic fire simulation: a survey	2011	6.011325664393258	-8.576750607707496	2172515
2172977	Visualization	creating meaningful environment models for augmented reality	2008	6.068777776782618	-9.006711644843582	2173004
2173344	AI	the u-sig system; a connectionist driven simulation of socially interactive agents	2002	5.0515818235969405	-8.576523428523368	2173371
2175363	Graphics	inverse-procedural methods for urban models	2013	6.283349135677558	-8.201528104874848	2175390
2175608	Graphics	designing solid objects using interactive sketch interpretation	1992	5.877147832785678	-9.015692151339877	2175635
2176184	Graphics	illustrating how mechanical assemblies work	2010	4.5989858581510035	-9.371939674769363	2176211
2176571	AI	kants: a stigmergic ant algorithm for cluster analysis and swarm art	2014	5.106147398252887	-8.086152062341501	2176598
2177484	Robotics	two bots, one brain: component sharing in cognitive robotic architectures	2017	4.4590955169432185	-8.546316261653162	2177511
2177696	Graphics	scan gate	2007	5.787988562258358	-9.651784409248922	2177723
2177776	AI	design of an educational videogame to transform citizens into agents of change considering a colombian post-conflict scenario	2015	5.311344956752079	-8.286154676810341	2177803
2178568	HCI	evolving content in the galactic arms race video game	2009	4.966457248213146	-8.232356080773604	2178595
2179839	Web+IR	leveraging crowdsourcing to detect improper tasks in crowdsourcing marketplaces	2013	5.300820844323536	-8.098160016485236	2179866
2180069	AI	human behaviours simulation in ubiquitous computing environments	2010	5.1050737195584786	-9.431252379824516	2180096
2181036	Graphics	vision-based modeling for production-quality integration of photographic imagery and 3d graphics	1996	5.268512524097941	-9.563919720049505	2181063
2182002	Visualization	photorealistic rendering: a survey on evaluation	2018	6.134337679688175	-8.596155002504037	2182029
2182156	Graphics	synthetic faces: analysis and applications	2003	5.850894330273068	-9.78535009029584	2182183
2182696	AI	distributed drama management: beyond double appraisal in emergent narrative	2012	5.353126312002666	-8.161513290809205	2182723
2184212	Robotics	using motivation-driven continuous planning to control the behaviour of virtual agents	2003	4.478734613254578	-8.746429880494722	2184239
2184417	AI	greta: a conversing socio-emotional agent	2017	5.471313616853666	-8.016117626440964	2184444
2185127	Visualization	the synthetic battlebridge: a tool for large-scale ves	1996	5.635621254789652	-8.92524650805084	2185154
2185879	Visualization	a game engine-based multi-projection virtual environment with system-level synchronization	2005	6.144898324523831	-9.395109732599249	2185906
2185978	HCI	monitoring social expectations in second life	2009	5.112026417001071	-8.359748264249895	2186005
2186671	Robotics	imagination and situated cognition	1994	4.5730785214467256	-8.672173401035536	2186698
2187443	Visualization	real-time visualization in the offshore industry	2001	4.713720235943192	-9.004469245364408	2187470
2187758	HCI	autocomplete textures for 3d printing	2017	5.8182811006732535	-9.671564484857527	2187785
2187846	Robotics	a collaborative design platform for assembly process planning	2006	6.2069360271282505	-9.413999709994009	2187873
2188701	Graphics	topology-constrained synthesis of vector patterns	2014	5.587696333327122	-9.325496355211037	2188728
2188819	AI	developing a smart environment for crisis management training	2013	4.735133193096661	-8.375375533680844	2188846
2188964	Graphics	"""nintendo """"symphony"""""""	2002	5.782935926503013	-9.509199467556694	2188991
2190410	HCI	assembling environments with legoscape	2014	5.833061040606817	-9.27183506329489	2190437
2191503	Visualization	computer graphics techniques for modeling cloth	1996	6.280403203264616	-8.298461294545714	2191530
2192061	HCI	visual creative design with the assistance of curious agents	2006	5.8243442292079886	-7.948224407552348	2192088
2192584	ML	layered genetical algorithms evolving into musical accompaniment generation	2006	5.38136271301867	-8.322180746382458	2192611
2192985	Visualization	automatic spatial analysis and pedestrian flow control for real-time crowd simulation in an urban environment	2008	5.054864684696729	-8.625348081055206	2193012
2194077	Graphics	traffic control	1997	5.787725410738634	-9.548832479912011	2194104
2194587	HCI	a three-dimensional approach to graphic design	2003	6.152461880399126	-8.605071743293369	2194614
2195054	Graphics	a geometric representation for the real-time simulation of nc machining processes	2006	4.88127246404002	-9.714200421937136	2195081
2195965	HCI	fusion of technology and art: essence to consider	2015	5.844946859356319	-9.693371127124433	2195992
2196134	Graphics	fluid simulation as a tool for painterly rendering	2004	5.871540881754685	-9.075012586882314	2196161
2196363	AI	a multiagent approach for musical interactive systems	2003	4.901023848849998	-8.797734614662254	2196390
2196423	HCI	spatial augmented reality for physical drawing	2012	5.807277274165182	-9.782580010598846	2196450
2196563	HCI	a methodology for user directed search in evolutionary design	2013	5.721245060422188	-7.919340404808638	2196590
2196849	Visualization	corvette: collaborative environment for technical training and experiment	2014	5.2165152146101885	-9.13235046920935	2196876
2197119	AI	changing topics of dialogue for natural mixed-initiative interaction of conversational agent based on human cognition and memory	2010	4.861612601025121	-8.398127232393003	2197146
2198176	Robotics	modeling and simulating ambient assisted living environments - a case study	2010	4.3914071759002224	-9.446717700311902	2198203
2198552	AI	genetic algorithms as a model of musical creativity - on generating of a human-like rhythmic accompaniment.	2005	5.561434644028868	-8.824394549755942	2198579
2199012	Robotics	a machinima system based on network game	2017	6.134269802392487	-9.604646094795552	2199039
2199045	Visualization	digital weaving, part 1	2002	5.940127588863509	-9.513219171979047	2199072
2200723	HCI	leveraging third-party tools for art-driven fluids & foliage	2004	5.883909440779103	-9.059743230267793	2200750
2201485	HCI	an augmented reality application framework for complex equipment collaborative maintenance	2011	5.868849767173556	-9.581431631163568	2201512
2201675	Graphics	a sar-based interactive digital exhibition of korean cultural artifacts	2015	5.494588062775429	-9.601997630826393	2201702
2202788	Visualization	declarative optimization-based drama management in interactive fiction	2006	5.851309496231235	-8.163420809852003	2202815
2204978	AI	solusforge: controlling the generation of the 3d models with spatial relation graphs	2017	5.930258940178073	-8.548704139637291	2205005
2205648	HCI	a local search interface for interactive evolutionary architectural design	2012	5.676255448451282	-7.936943614868383	2205675
2206131	Visualization	making sense of geometric data	2015	6.265424911905236	-8.205011949998623	2206158
2206569	HCI	design mining for minecraft architecture	2018	6.120896061740369	-8.157379526446269	2206596
2207575	AI	decisions about turns in multiparty conversation: from perception to action	2011	5.189190803636138	-8.075589536583937	2207602
2208415	Visualization	a camera flash projector-based reconstruction system for digital preservation of artifacts	2013	6.211179851515626	-8.219108390858057	2208442
2209007	Graphics	3d virtual character reconstruction from projections: a nurbs-based approach	2004	5.320527962886324	-9.586927747921509	2209034
2209099	HPC	suitability of mpeg4's bifs for development of collaborative virtual environments	2001	6.187106924466381	-9.519307491241847	2209126
2209705	HCI	painting using genetic algorithm with aesthetic evaluation of visual quality	2014	5.378387187586715	-8.351481508840175	2209732
2210131	Robotics	living book of anatomy (lba) project: see your insides in motion!	2015	5.814387600990142	-9.7637698775796	2210158
2210317	ML	key technologies of modeling for equipment training environment	2010	5.437800166497126	-8.963340372378354	2210344
2211050	HCI	3d shadow art sculpture based on real items	2017	5.791437865657303	-9.68672856988683	2211077
2211398	AI	limits and opportunities for mathematizing communicational conduct for social robotics in the real world? toward enabling a robot to make use of the human’s competences	2015	4.861364059116854	-8.622022790793705	2211425
2212290	Graphics	a motivational model of action selection for virtual humans	2005	4.567936325806978	-8.631717537361286	2212317
2213678	AI	uct for tactical assault planning in real-time strategy games	2003	4.433538369817153	-8.030021904325153	2213705
2213783	EDA	software application for smile design automation using the visagism theory	2016	5.963358711570402	-9.047364588204257	2213810
2214083	Vision	the application of vision algorithms to visual effects production	2010	5.793828064619847	-9.102824117752007	2214110
2215624	Graphics	making waves for surf's up	2007	5.685025291028776	-9.523130532990717	2215651
2215749	HCI	sai-bots: scripted artificial intelligent basic online tank simulator	2005	5.30476489948695	-9.273175837840304	2215776
2217059	Robotics	affective user modeling for adaptive intelligent user interfaces	2007	4.960856868645344	-8.704988081471143	2217086
2217139	AI	a scenario language to orchestrate virtual world evolution	2003	4.861778040158836	-8.663977561840426	2217166
2217385	Graphics	interactive modelling of branching structures	1996	5.819685624739824	-8.352024623215259	2217412
2217899	SE	split grammar evolution for procedural modeling of virtual buildings	2015	5.723019838987431	-8.354742392183207	2217926
2218526	Graphics	constraint-based model synthesis	2009	5.783877549587174	-8.773244766443355	2218553
2218696	NLP	the synthesis of rock textures in chinese landscape painting	2001	5.594855725744744	-9.125984572760006	2218723
2218998	EDA	three-dimensional acquisition of large and detailed cultural heritage objects	2006	5.9821249790712505	-8.223849340677784	2219025
2219230	HCI	"""""""underwater love"""": building tristão and isolda's personalities"""	1999	5.164327338306438	-8.685258466334204	2219257
2219478	Graphics	watercolor illustrations of cad data	2008	5.693140427869756	-9.294186813353214	2219505
2220000	Graphics	an interactive 3d graphics modeler based on simulated human immune system	2008	5.565455805624193	-8.567035143247438	2220027
2220266	Graphics	perception of lighting and shading for animated virtual characters	2016	5.8845731786246125	-9.747764693812604	2220293
2220334	AI	open world story generation for increased expressive range	2017	5.972775098560443	-7.934393263366608	2220361
2220337	Graphics	e-movie creation by rule-based reasoning from the director's viewpoint - e-movie: computer animation & real images	2004	5.950914594430907	-8.322249959023877	2220364
2220557	HCI	the role of awareness for complex planning task performance: a microgaming study	2016	4.796810423870973	-8.956265543522218	2220584
2220812	Visualization	the use of multiple coordinated views in three-dimensional virtual environments	2004	5.940347584736857	-9.599131572358527	2220839
2221631	AI	how? why? what? where? when? who? grounding ontology in the actions of a situated social agent	2015	4.528561883887961	-8.677873637191633	2221658
2221838	AI	genjam: a genetic algorithm for generating jazz solos	1994	5.498250820738359	-8.588147778760678	2221865
2222097	Logic	an emotionally biased ant colony algorithm for pathfinding in games	2010	4.416411612767144	-8.610155187443924	2222124
2222586	HCI	a pattern-based game mechanics design assistant	2015	6.0254685415410725	-8.468221064142696	2222613
2222770	Robotics	dthi based three dimensional interactive multimedia chip and system design	2013	5.961485731964933	-9.800205099622833	2222797
2223130	HCI	easy access to huge 3d models of works of art	2006	6.2161596154530665	-8.868224601105672	2223157
2223637	AI	evolving neural npcs with layered influence map in the real-time simulation game ‘conqueror’	2008	5.012086673252687	-8.286913320221599	2223664
2224439	Graphics	gdps: geometric animation based dynamic photo system	2007	5.627466621764491	-9.60523274627394	2224466
2224759	HCI	zensketch: a sketch-based game for improving line work	2017	5.990052419104444	-9.497793995139947	2224786
2225152	HCI	species explorer: an interface for artistic exploration of multi-dimensional parameter spaces	2016	5.3332177034524175	-8.055222696408068	2225179
2225374	Embedded	dynamic recombination of evolving guitar sounds (dregs): a genetic algorithm approach to guitar synthesizer control	2013	5.6190809682439005	-8.745163820156325	2225401
2225459	Graphics	neu: how brain activity can change an animated scene	2012	5.864669293142461	-9.437243185360174	2225486
2225717	AI	pac-man or pac-bot? exploring subjective perception of players' humanity in ms. pac-man	2017	4.5291102675872805	-8.216591140182503	2225744
2227253	HCI	a new cosine similarity matching model for interior design drawing case reasoning	2016	4.550391022557856	-9.105467739991283	2227280
2227513	Graphics	a modular crowd (n)cloth system for exodus : gods and kings	2015	5.724036868852233	-8.901221543836213	2227540
2227527	Vision	photo fakery and forensics	2009	5.333154145923883	-8.932476263938613	2227554
2228643	Visualization	virtualized reality: perspectives on 4d digitization of dynamic events	2007	5.527565021634878	-9.660162060830224	2228670
2229206	AI	dynamic game difficulty balancing in real time using evolutionary fuzzy cognitive maps	2015	4.520707689005454	-8.121708548222411	2229233
2229397	Robotics	mpeg-4-based interactive visualization as an analysis tool for experiments in robotics.	2006	6.127386179671725	-9.751334642086707	2229424
2230427	AI	computational models of players' physiological-based emotional reactions: a digital games case study	2014	4.782694319101113	-8.479373757062964	2230454
2230749	EDA	optimized real-time simulation of objects for musical synthesis and animated image synthesis	1986	5.853015430326941	-9.292154773861018	2230776
2231358	Robotics	intelligent pedagogical agents with multiparty interaction support	2004	4.966352324485637	-8.710121951763183	2231385
2232049	Graphics	artistic anatomy based, real-time reproduction of facial expressions in 3d face models	1999	5.848678743242876	-9.303148385159123	2232076
2232058	Visualization	[poster] design and implementation of a common dataset for comparison and evaluation of diminished reality methods	2017	5.838223831122249	-9.12861376979726	2232085
2232149	Robotics	automatic binding point and surface helix angle measurement in historic weft-faced compound weave figured silks	2013	5.695254023481701	-8.414605354534334	2232176
2232265	Visualization	data-driven guides: supporting expressive design for information graphics	2017	6.1083006264729285	-8.851003846630038	2232292
2232368	Robotics	extending real-time challenge balancing to multiplayer games: a study on eco-driving	2016	4.665184994570889	-8.211830395693404	2232395
2234115	AI	towards evolutionary story generation	2014	5.296934513860079	-8.009592354605605	2234142
2234907	AI	sketch-based pruning of a solution space within a formal geometric constraint solver	2000	5.942956281544702	-8.258330427165768	2234934
2234995	HCI	sketch-based identification of bench and terrace slope breaks in the laramie basin, wyoming	2007	5.875718705132064	-8.383471884415837	2235022
2235589	HCI	evolutionary guis for sound synthesis	2007	5.652997494259439	-8.721350649696912	2235616
2235674	AI	dynamic frame rate: a study on viewer perception of changes in frame rate within an animated movie sequence	2016	4.809985361112238	-9.54373651031635	2235701
2235780	Visualization	guidance method to allow a user free exploration with a photorealistic view in 3d reconstructed virtual environments	2017	5.627727841765879	-9.775573179962471	2235807
2235809	Graphics	tour jeté, pirouette: dance choreographing by computers	2003	6.1223457967553605	-9.272415569304648	2235836
2236354	AI	reactive planning idioms for multi-scale game ai	2010	4.470181600724925	-8.222489030099817	2236381
2236410	HCI	parameterized computer aided design of stubble cleaner	2007	5.392716017762189	-9.303430101142377	2236437
2236779	Graphics	picture-driven animation	1969	5.723364383517863	-9.674138010866775	2236806
2237359	HCI	virtual_stages: an interactive model of performance spaces for creative teams, technicians and students	1999	5.769475712138476	-9.674759989548413	2237386
2237452	Visualization	the use of an aesthetic measure for the evolution of fractal landscapes	2011	5.442358309512747	-8.385773331089418	2237479
2238475	HCI	intelligent reconstruction and assembling of pipeline from point cloud data in smart plant 3d	2015	5.7615765489645625	-8.288567321091422	2238502
2238530	Graphics	crafting 3d faces using free form portrait sketching and plausible texture inference	2010	5.288183553124911	-9.650991105667144	2238557
2238736	Robotics	sociable spotlights: a flock of interactive artifacts	2011	5.585595101708678	-8.701497280768727	2238763
2239065	HCI	toward an audio digital library 2.0: smash, a social music archive of shellac phonographic discs	2010	5.096716563097453	-9.670844481181806	2239092
2239093	Robotics	role adaptation of human and robot in collaborative tasks	2015	4.4191716700725845	-8.713717503220673	2239120
2239244	Logic	computer graphics: a tool for the artist, designer and amateur	1987	6.245832854284242	-8.64679512018551	2239271
2239350	SE	virtual humans: lessons learned in integrating a large-scale ai project	2005	5.041056424248333	-9.159428021721537	2239377
2239821	Graphics	graphics geometric perception and communication	1974	6.267283341208417	-9.348589167151374	2239848
2239983	Graphics	multiperspective panoramas for cel animation	1997	5.455435564005097	-9.748347971650569	2240010
2241126	AI	i spy: an interactive game-based approach to multimodal robot learning	2015	4.381021524771051	-8.785640021816704	2241153
2242356	AI	dynamic control of intention priorities of human-like agents	2006	4.6736722101900074	-8.06480035843507	2242383
2243281	Theory	user guide to tim, a ray-tracing program for forbidden ray optics	2011	5.80289265328947	-9.317418036734423	2243308
2244350	AI	a multi-agent game for studying human decision-making	2014	4.706031569006277	-8.042412210080037	2244377
2245765	AI	player modeling for intelligent difficulty adjustment	2009	4.5080004930024336	-8.111926101798147	2245792
2246678	Graphics	immersive virtual reality training tool for iot device placement	2017	5.803577715667281	-9.487852791261448	2246705
2247004	AI	unity: a general platform for intelligent agents	2018	4.450912773766751	-8.774372506253318	2247031
2248696	EDA	interactive particle swarm optimization for the architectural design of truss structures	2013	6.107197131102401	-8.545383579707673	2248723
2248878	Robotics	rubber paint feeling characteristic analysis and its application in product design	2011	5.5042213724926246	-9.316914708023663	2248905
2251935	HCI	interactive motion photography from a single image	2009	5.816493027015213	-9.715859003002233	2251962
2252059	Visualization	using virtual reality and 3d industrial numerical models for immersive interactive checklists	2013	5.163905452887998	-9.711719188685178	2252086
2253012	AI	moba: a new arena for game ai	2017	4.468580311919606	-8.238253682912017	2253039
2253099	Visualization	autonomous virtual agents learning a cognitive model and evolving	2005	4.42224936108812	-8.872940321862295	2253126
2253748	HCI	developing tools for 2d/3d conversion of japanese animations	2011	5.7216764229856665	-9.590085067223699	2253775
2254470	Graphics	tangled choreographing destruction: art directing a dam break	2011	5.751173374764368	-9.536813706935805	2254497
2255171	AI	generating a complete multipart musical composition from a single monophonic melody with functional scaffolding	2012	5.415773934364152	-8.515775045687732	2255198
2256025	Graphics	computer graphics hardware - image generation and display: tutorial	1988	6.004899326187861	-8.598461192820016	2256052
2256160	DB	digital preservation and dissemination of ancient lithic technology with modern micro-ct	2011	6.082149915238875	-8.262527761596541	2256187
2256417	AI	action-based character ai in video-games with cogbots architecture: a preliminary report	2013	4.744794147618293	-8.353472961751192	2256444
2256709	AI	fusing flamenco and argentine tango by evolutionary composition	2017	5.545801794468051	-8.547736009423003	2256736
2256805	HCI	declarative terrain modeling for military training games	2010	5.974580382671273	-8.931129410710318	2256832
2256881	HCI	situated design of virtual worlds using rational agents	2003	5.120650403110572	-8.494833464253729	2256908
2257418	HCI	towards card-based user interfaces workspaces for group mission planning	2016	4.803923507471025	-8.653629707522027	2257445
2257478	PL	multithreading and vfx	2013	6.008528447099718	-8.685023379151088	2257505
2257729	AI	affective computation based npc behaviors modeling	2006	5.145508492016908	-8.239415989073132	2257756
2258052	DB	towards a methodology for integrating physics engines with virtual environments: a case study using the reve platform and the vesper3d physics engine	2012	4.574557457235062	-8.81721077714928	2258079
2258412	Graphics	creating and scripting second life bots using mpml3d	2008	6.195969967644206	-9.224171508588066	2258439
2258532	AI	interactive genjam: integrating real-time performance with a genetic algorithm	1998	5.6890554704065215	-8.822496531161756	2258559
2258607	AI	the challenge of believability in video games: definitions, agents models and imitation learning	2010	4.664667025058924	-8.311587624141087	2258634
2258714	HCI	interactive techniques for populating large virtual cities	2013	5.335383204969888	-8.551345839860076	2258741
2260278	Robotics	a model of contingency detection to spot tutoring behavior and respond to ostensive cues in human-robot-interaction	2013	5.588401234193793	-8.132599636213747	2260305
2261280	ML	predicting behavior in new behavioral experiments: outcomes of a modeling competition	2012	4.376753199679278	-8.00786950158192	2261307
2261292	AI	symbolic reasoning for hearthstone	2018	4.440825516801387	-7.969044727878453	2261319
2261397	HPC	cavestudy: an infrastructure for computational steering and measuring in virtual reality environments	2001	6.015849363826362	-8.805863226086029	2261424
2261423	ML	generating colored 2-dimensional representations of sleep eeg with the kants clustering algorithm	2012	5.163206451078948	-8.09091207957803	2261450
2261577	AI	a testbed for evaluating ai research systems in commercial games	2006	4.4539373897443495	-8.115346031418147	2261604
2261797	HCI	escape machine: teaching computational thinking with a tangible state machine game	2008	4.8518866492435055	-8.476689759604502	2261824
2263811	Visualization	interactive construction of 3d mathematical visualization models	2011	5.787490226277591	-9.481855508721504	2263838
2263866	Visualization	curve and surface interpolation and approximation: knowledge unit and software tool	2004	6.135361664460045	-8.16320528033795	2263893
2264108	AI	intelligent decision support to assist real-time collaboration	2008	4.571291601768371	-8.34057529974989	2264135
2264522	Visualization	vr model to explore archaeological sites in a non-destructive way	2016	6.116469493548367	-9.479835767164047	2264549
2265200	Graphics	collaborative virtual design environments: introduction	2001	5.24772929910603	-9.201503674046807	2265227
2265346	EDA	virtual reality in assembly simulation: collision detection, simulation algorithms, and interaction techniques	2000	6.2736969986191395	-9.116042822016723	2265373
2265634	Visualization	an interactive visualization and navigation tool for medical volume data	1999	6.210082817144512	-8.084920798995425	2265661
2266442	SE	a variety weapons and armors design algorithm for role-playing games	2015	4.628232196933892	-8.097813772132511	2266469
2266553	AI	i contain multitudes: creativity and emergent narrative	2013	5.471221437307428	-8.041679181379656	2266580
2267672	Graphics	collaborative environments of intelligentbox for distributed 3d graphics applications	1998	6.233007666375954	-9.215630372737008	2267699
2267811	Graphics	an integrated system for modeling, animating and rendering hair	1993	5.1126043654801965	-9.670433869378467	2267838
2269065	Visualization	fidelity in visualizing large-scale simulations	2005	5.752251602791732	-8.897232841393453	2269092
2269868	AI	agents for educational games and simulations	2011	4.508679675255183	-8.672094569937071	2269895
2269953	HCI	interactive creation of virtual worlds using procedural sketching	2010	5.788686927342369	-9.089801072979029	2269980
2270942	Graphics	cognitive modeling: knowledge, reasoning and planning for intelligent characters	1999	5.090486803975495	-8.344113906900574	2270969
2271267	EDA	real-time digitised shadow play performance method based on multi-point interactive controlling method	2010	6.3018628791617575	-9.675974551107585	2271294
2271415	Visualization	bim + ar: onsite information sharing and communication via advanced visualization	2012	5.7457906275187245	-9.672814492601743	2271442
2271522	Graphics	skin deformation and animation of character models based on static and dynamic ordinary differential equations	2016	5.572067069684682	-8.798476494126819	2271549
2272067	HCI	crowd-powered parameter analysis for visual design exploration	2014	5.615110289031546	-9.449640901002619	2272094
2272608	Visualization	an augmented reality setup from fusionated visualization artifacts	2014	5.781761387745469	-9.767676472495973	2272635
2272644	AI	grammar-based procedural content generation from designer-provided difficulty curves	2015	5.4592289851854385	-8.285499609914444	2272671
2273425	Visualization	terrain generation using an interactive genetic algorithm	2010	6.189675024102348	-8.503276462745458	2273452
2273898	Graphics	edf la vallée	2002	5.714424385123001	-9.34110464039288	2273925
2274402	AI	emotions as durative dynamic state for action selection	2007	4.822265604010998	-8.48114389537066	2274429
2275292	AI	image and geometry processing for 3-d cinematography: an introduction	2010	5.0119741446874615	-9.644251970848174	2275319
2275463	Graphics	curls gone wild: hair simulation in brave	2012	5.7180633233567795	-9.371723380496851	2275490
2275674	NLP	social emotional optimisation algorithm with emotional model	2012	4.8655934642634815	-8.410903506997935	2275701
2276193	Graphics	volumetric texture for fissure in 2012	2009	6.086550203924989	-8.313334789716361	2276220
2277742	DB	responsive web design for chinese head and facial database	2018	5.418583340616722	-9.712984309396749	2277769
2278398	HCI	antsworld - a tangible interface for an interactive ant foraging simulator	2013	5.281098796468169	-8.376696515796331	2278425
2279019	Graphics	efficiently searching for similar images	2010	6.227391926049813	-8.311558665071546	2279046
2279307	Graphics	interactive computer graphics for the generation of phase plane portraits	1979	5.9139599000036895	-9.291902605536018	2279334
2279512	Vision	a guided tour to virtual sagalassos	2001	6.225835749739645	-8.379738087631248	2279539
2279950	Graphics	teaching the graphics processing pipeline: cosmetic and geometric attribute implications	2001	6.303726384678752	-9.269632734150717	2279977
2280543	Visualization	physical avatars in a projector-camera tangible user interface enhance quantitative simulation analysis and engagement	2013	5.878135162482224	-9.757902218369608	2280570
2280744	Robotics	commonsense knowledge as the glue in a hybrid model of computational creativity	2014	5.2927465458816645	-8.007438532386706	2280771
2280915	Visualization	towards zero-waste furniture design	2016	5.7641708878743945	-9.643292898502024	2280942
2281908	AI	explanation and coordination in human-agent teams: a study in the bw4t testbed	2011	4.707044492437163	-8.274858917432597	2281935
2281927	Graphics	a development environment for designing interactive characters with sensorimotor models	2010	5.092152794631823	-9.514391169663154	2281954
2282508	Visualization	foreword to special section on ieee vr 2009	2010	5.694463500837437	-9.714097530745468	2282535
2282614	Visualization	multiple perspectives in computer graphics: arguments from perceptual grouping and renaissance art	2006	6.2485064712936405	-8.027502588624277	2282641
2282697	AI	coherent gestures, locomotion, and speech in life-like pedagogical agents	1998	5.114402705869918	-9.120666130121856	2282724
2284011	AI	learning to generate video game maps using markov models	2017	4.9295654896160706	-8.082475161386588	2284038
2284123	AI	an intelligent agent for a vacuum cleaner	2009	6.245878730766294	-9.783809546815537	2284150
2284257	AI	a computational environment for the evolutionary sound synthesis of birdsongs	2012	5.099062669658107	-8.305077182250471	2284284
2284404	HCI	performance timing for keyframe animation	2004	5.735133758754653	-9.74663437148305	2284431
2284724	Graphics	animation of plant development	1993	4.779381692674281	-8.031657199526679	2284751
2284884	SE	a participant recruitment framework for crowdsourcing based software requirement acquisition	2014	4.784789746129689	-8.2356718692961	2284911
2284974	HCI	building virtual structures with physical blocks	1999	5.862331783434501	-9.145664654375835	2285001
2285461	HPC	designing virtual bots for optimizing strategy-game groups	2016	4.478008016497469	-8.055151790737254	2285488
2287690	HPC	interactive virtual mummy dissections in a historical anatomic theatre	2003	5.949850535940255	-9.493741048380588	2287717
2287802	HCI	the design of an intelligent interface for a laser optical system	1988	5.922191736325263	-9.518024066487492	2287829
2288384	Robotics	autonomous object level segmentation	2014	5.305605435808577	-8.638296660674117	2288411
2288626	Visualization	augmenting physical maps: an ar platform for geographical information visualization	2016	6.05123032033539	-9.404601347568967	2288653
2291373	HCI	a sketch-based system for highway design with user-specified regions of influence	2012	6.1414278510158224	-7.9517913852073	2291400
2291610	Graphics	camera control in computer graphics: models, techniques and applications	2009	4.801273423356917	-9.004000237085242	2291637
2291956	Visualization	the role of perception for computer graphics	2008	6.1199704805801085	-8.914334424060621	2291983
2292450	Vision	an ontology of virtual humans	2006	5.521285550480573	-9.173273215403654	2292477
2292685	Robotics	towards real-time behavioral evolution in video games	2014	4.525217330699894	-8.13466037128329	2292712
2293156	NLP	social emotional optimisation algorithm with levy distribution	2012	4.828927298682231	-8.267493812252965	2293183
2293182	AI	duality of actor and character goals in virtual drama	2009	5.361941548319743	-8.155007380947897	2293209
2295225	HCI	crowdbrush: interactive authoring of real-time crowd scenes	2005	5.442723510077766	-9.593967702274853	2295252
2295477	Graphics	"""building detailed fractal sets for """"guardians of the galaxy vol. 2"""""""	2017	5.895988015645738	-9.013677486939251	2295504
2296225	Graphics	real time video architecture of a texture generator for digital video production	1994	6.194436114649684	-8.629327595835461	2296252
2296621	AI	creating ai characters for fighting games using genetic programming	2017	4.37665781089446	-8.10052989278563	2296648
2298248	HCI	genetic programming for subjective fitness function identification	2004	5.059230811010092	-8.29374078088491	2298275
2298251	AI	an architecture for affective behaviour based on the conservation of resources	2011	4.851516180978828	-8.653530820953415	2298278
2299058	Graphics	computer graphics system for reproducing three-dimensional shape from idea sketch	1994	5.6855044143048845	-9.341920024789259	2299085
2300179	AI	compositional procedural content generation	2012	5.246625103038535	-8.255912834005013	2300206
2300409	HCI	generating needs, goals and plans for virtual agents in social simulations	2016	6.002770044006915	-9.226444246998526	2300436
2301614	Robotics	intelligent multi media presentation of information in a semi-immersive command and control environment	2004	6.219788652538465	-9.192522998162731	2301641
2301978	AI	automatic generation of artistic chinese calligraphy	2004	5.842813884000607	-9.25581256089866	2302005
2302010	HCI	creating and using tools in a hybrid cognitive architecture	2018	4.532684618064004	-8.603619257925303	2302037
2302572	Visualization	analytically-defined collaborative shape modeling in vrml	2004	6.078441969382122	-8.777136871621671	2302599
2302875	HPC	virtual astronaut for scientific visualization—a prototype for santa maria crater on mars	2012	6.21697520111073	-8.473711533597147	2302902
2303045	EDA	cad data visualization on mobile devices using sequential constrained delaunay triangulation	2009	5.193100347921623	-9.653527470498897	2303072
2303224	NLP	michiko: poem models used in automated haiku poetry generation	2018	5.767860382200782	-8.45227916260908	2303251
2303226	HCI	next-generation visualization displays: the research challenges of building tiled displays (panel session)	2000	6.247973691961	-9.267676716823381	2303253
2303418	AI	towards automated artificial evolution for computer-generated images	1994	5.097018750279842	-8.258573099205433	2303445
2303502	Visualization	advanced 3d visualization for simulation using game technology	2011	6.214984992746984	-8.742905940872674	2303529
2303804	AI	a computational model for finding the tilt in an improvised scene	2011	4.972703246702613	-9.682040411014839	2303831
2305955	Robotics	developing a web-based pattern recognition system for the pattern search of components database by a parallel computing	2003	4.74317031009787	-8.675467924042806	2305982
2306512	HCI	mobicrowd: simulating crowds with periodic and social mobility	2014	4.789640874482769	-8.768004857395706	2306539
2307433	PL	creating and exploring huge parameter spaces: interactive evolution as a tool for sound generation	2001	6.000539122691143	-9.266293280420475	2307460
2307749	HCI	using gasp for collaborative interaction within 3d virtual worlds	2000	5.819105487164864	-9.282932249710596	2307776
2308143	DB	polyhedron network model to describe creative processes	2014	6.155900586729449	-8.17114965031489	2308170
2308270	AI	parlee: an adaptive plan based event appraisal model of emotions	2002	5.000621773530368	-8.137089502682253	2308297
2308310	EDA	an automatic roof frame design method for korean traditional wooden architecture	2012	5.722008176355352	-8.939472633185655	2308337
2308405	Graphics	the three graces	2004	5.836450051234154	-9.581281443288207	2308432
2309652	AI	a three-layered architecture for socially intelligent agents: modeling the multilevel process of emotions	2005	5.151372253818	-8.238298650975869	2309679
2310339	Robotics	an event-centric planning approach for dynamic real-time narrative	2013	5.467554022387952	-8.133496448398386	2310366
2313156	Graphics	smoke brush	2014	5.701079989803909	-9.349656023874342	2313183
2315137	HCI	build your own procedural grooming pipeline	2017	5.875654145711214	-9.093811920554618	2315164
2315280	AI	a rule-based method for generating bookshelf models	2010	5.835185275424348	-8.957411285091153	2315307
2316357	HCI	object-oriented video: interaction with real-world objects through live video	1992	6.293265824831861	-9.431020608999932	2316384
2317256	AI	towards a design approach for integrating bdi agents in virtual environments	2011	4.7180013732019725	-8.656178398356985	2317283
2318347	HCI	dynamic sketching: simulating the process of observational drawing	2014	5.7507899200435535	-9.376527808889305	2318374
2318821	EDA	separating topology and geometry in space planning	2000	5.805726917851202	-8.126252990091107	2318848
2319492	Visualization	binding virtual environments to toolkit capabilities	2000	6.058696049659544	-9.547184476458694	2319519
2319645	Graphics	interactive design of urban spaces using geometrical and behavioral modeling	2009	5.742017817237643	-8.443097485480676	2319672
2319768	AI	a multiagent framework to animate socially intelligent agents	2007	4.851013817908183	-8.428695914498741	2319795
2320840	Mobile	video coding for mobile handheld conferencing	1999	5.682319238781906	-9.731163635304707	2320867
2320936	Robotics	office layout support system using interactive genetic algorithm	2006	5.194099822665844	-9.753137503873756	2320963
2321296	Robotics	a virtual environment for learning aiport emergency management protocols	2009	4.708835390159577	-9.153705206905622	2321323
2321880	Graphics	three-dimensional displays and computer graphics	2005	5.728409880707767	-8.08837234844662	2321907
2321893	Robotics	social coordination for looking-together situations	2018	4.6880702836497585	-8.723760688943141	2321920
2321978	Graphics	enhanced sic (synergistic image creator) for artistic use	2005	5.676893103877858	-9.57367448550132	2322005
2322045	AI	skeleton-based wayfinding for computer games	2005	4.655382305851861	-8.460934729157133	2322072
2322068	Graphics	scattering: acquisition, modeling, and rendering	2013	5.890022040151689	-8.718061642182604	2322095
2322359	ML	grammatical music composition with dissimilarity driven hill climbing	2016	5.430662118961239	-8.636549918394655	2322386
2324921	Graphics	automated interior design using a genetic algorithm	2017	5.300505319570821	-9.57451906382841	2324948
2325899	Graphics	realistic rendering in architecture and product visualization	2018	6.044944596140548	-8.85146179062681	2325926
2326191	Vision	aesthetic 3d model evolution	2012	5.303472416508377	-8.306552659106126	2326218
2326566	EDA	stitch: an interactive design system for hand-sewn embroidery	2018	5.786126872005835	-9.707796308109419	2326593
2327316	HPC	the johns hopkins turbulence databases: an open simulation laboratory for turbulence research	2015	5.355473703648652	-8.341421718360548	2327343
2328209	Graphics	3d paper-cut modeling and animation	2007	5.583827602627841	-9.331634013965472	2328236
2328680	AI	using conceptual spaces for object recognition in multi-agent systems	2015	4.429986731326033	-8.887501923525734	2328707
2329659	Graphics	real time animated human agent in virtual environments	2005	5.204681273874182	-9.345763371898766	2329686
2330232	Visualization	extending space colonization tree modeling for artistic control and environmental interactions	2014	5.760743319290867	-8.999835430425199	2330259
2331063	AI	generating pen-plotter drawings from selective point-sets of digital photographs	2005	5.819979383472423	-9.30765330797606	2331090
2331432	Robotics	fusion and fission engine for an assistant robot using an ontology knowledge base	2017	4.644444333481962	-9.392287584287336	2331459
2332128	Robotics	design of tasting perception system of artificial fish based on fuzzy neural network	2009	4.906094727364367	-8.795731406096115	2332155
2334904	Visualization	a real-time stereoscopic small-computer graphics display system	1975	6.028482940485157	-9.720457664308721	2334931
2335903	AI	planning social actions through the others' eyes for emergent storytelling	2016	5.1570131156868735	-8.409816981868888	2335930
2336427	HCI	glsv: graphics library stereo vision for opengl	2008	6.038188540075223	-9.354269077376498	2336454
2336999	HCI	protocols and assisted tools for effective image-based modeling of architectural elements	2012	6.18679466991679	-8.102283330441878	2337026
2337388	AI	increasing believability in animated pedagogical agents	1997	4.667679675720196	-8.358335234905024	2337415
2337517	Graphics	procedural methods for urban modeling	2008	6.121539313591772	-8.555736656714043	2337544
2338554	Vision	quick and easy 3d modelling for all: a browser-based 3d-sketching framework	2017	6.103994127464159	-9.653800721171796	2338581
2339154	Graphics	evolving expression of emotions through color in virtual humans using genetic algorithms	2010	5.355321541744602	-8.573368104372943	2339181
2339537	Graphics	sequential line search for efficient visual design optimization by crowds	2017	5.582169972134117	-9.537756000994387	2339564
2339857	AI	evolutionary game design	2010	4.412830428830446	-7.972064634827099	2339884
2340041	AI	planning is the game: action planning as a design tool and game mechanism	2012	4.9640893128989925	-8.289578836877643	2340068
2340666	AI	dynamic game difficulty scaling using adaptive behavior-based ai	2011	4.397726356232674	-8.121169415263571	2340693
2340758	Arch	educational use of vrml and java in agent-based ai and computer graphics	2000	5.1590606757461535	-8.91174429432708	2340785
2340963	EDA	using spatial augmented reality for appliance design	2011	5.9969999779512335	-9.776036295238585	2340990
2341467	Robotics	collaborative programming by demonstration in a virtual environment	2012	4.923256165457423	-9.577001715110127	2341494
2342968	Graphics	runaway - a web-based, visual programming system and extensible framework for 3d animation	2011	6.1545078798006605	-9.280596899936004	2342995
2343081	Visualization	"""caustics effects with photo-realistic rendering on movie(""""cars')"""	2007	5.830023287570229	-9.526289279104477	2343108
2344355	AI	generating guitar tablature with lhf notation via dga and ann	2006	5.3509298469065865	-8.508787965033669	2344382
2344581	Visualization	next generation modeling ii - applications: experiencing natural phenomena with virtual, constructed and mathematical models	2003	6.152547834720147	-8.2350484774965	2344608
2344605	Visualization	multiscale traveling: crossing the boundary between space and scale	2009	5.1063067959778605	-9.63456811944791	2344632
2345228	Vision	historical perspectives on 4d virtualized reality	2006	5.496202284749117	-9.694860940102824	2345255
2345583	Robotics	manipanalysis - a software application for the analysis of force field experiments	2012	4.664445223114429	-9.173519701893314	2345610
2346150	Graphics	translucent history	1995	5.882059963715501	-8.964529064003074	2346177
2346196	AI	monte carlo tree search based algorithms for dynamic difficulty adjustment	2017	4.392521657591071	-8.145846228292084	2346223
2347070	Graphics	automatic fitness in generative jazz improvisation	2008	5.371994677367899	-8.457070741961521	2347097
2347143	HCI	3divs: 3-dimensional immersive virtual sculpting	1999	5.6308568948930136	-9.681402560134336	2347170
2348247	HCI	virtual scenery in broadcast television: the time 100 project at cbs television	1998	6.116039780669293	-9.535852700063245	2348274
2348349	Graphics	artist-directable real-time rain rendering in city environments	2006	5.665451708327522	-9.319271947842752	2348376
2348592	HCI	nuts & bolts	2002	5.840378816278423	-9.439827783405963	2348619
2349504	Graphics	hairy effects in trolls	2017	5.781990061628612	-9.344746266701618	2349531
2349542	Visualization	point-based computer graphics	2004	6.164159110265128	-8.409639169187193	2349569
2350144	Web+IR	a generic framework to exploit virtual worlds as normative and dynamic interactive spaces	2009	5.2021930510721175	-8.420559798342852	2350171
2350781	Graphics	how many pixels do we need to see things?	2003	5.576651258202393	-8.170493199924293	2350808
2351125	Graphics	the droplet virtual brush for chinese calligraphic character modeling	2002	5.510112656321846	-9.337817000389034	2351152
2351800	Graphics	photorealistic facial digitization and manipulation: technical perspective	2018	5.673804795173889	-8.788837697370242	2351827
2351828	AI	a synthetic actor model for long-term computer games	2000	5.228680081861331	-8.251566982795516	2351855
2351929	HCI	"""""""megamind"""": fire, smoke and data"""	2011	5.956154725092267	-8.841408195823279	2351956
2352225	Visualization	visualizing quaternions: course notes for siggraph 2007	2007	6.052975658756933	-8.364320905458287	2352252
2352612	Graphics	pipeline for populating games with realistic crowds	2007	5.443699838455879	-9.500462379808733	2352639
2352881	AI	music pattern mining for chromosome representation in evolutionary composition	2015	5.371237407412862	-8.336985388719274	2352908
2352982	AI	minuano: a fuzzy-logic-based drama manager	2011	4.465564562958027	-8.039362819017732	2353009
2353449	Robotics	study on 3d-map for on-board navigation system, based on multigen creator & vega	2006	5.977145969674505	-8.00242114082402	2353476
2355361	Graphics	interactive visual method for motion and model reuse	2003	5.999272652115952	-9.506151706421909	2355388
2355535	Graphics	blur algorithms for cartoon animation	2018	5.73798742146491	-9.347140250455038	2355562
2356164	HCI	evaluating the models and behaviour of 3d intelligent virtual animals in a predator-prey relationship	2012	4.602400526017031	-7.9140699196543025	2356191
2356374	AI	fuzzy cognitive maps for artificial emotions forecasting	2012	4.637636366404321	-7.961316756813548	2356401
2357360	Graphics	a gpu-based method for real-time simulation of eastern painting	2007	5.824849092001992	-9.375061962419736	2357387
2357433	OS	elckerlyc in practice - on the integration of a bml realizer in real applications	2011	6.048075501747282	-9.237506317898022	2357460
2357891	Graphics	condor: constraint-based dataflow	1992	5.688164054664624	-8.715725492093675	2357918
2359154	AI	cgp, creativity and art	2011	5.431422915486992	-8.125659095795976	2359181
2359175	Graphics	an architectural ceramic product decoration effect three-dimensional display system based on java3d	2010	5.799249601755045	-9.054940954658957	2359202
2359777	Graphics	the computer in choreography	1978	6.128899543423902	-8.855399079785611	2359804
2360026	AI	ai in feature film animation: how crowds artists use ai techniques at pixar	2015	5.981841142500574	-8.962965785259724	2360053
2360376	Graphics	survey of computer animation	1988	6.2997039505550765	-8.789708103196599	2360403
2361032	Robotics	controlled procedural terrain generation using software agents	2010	5.425593385648631	-8.511003837545509	2361059
2361462	Graphics	imake: computer-aided eye makeup	2014	5.790946789908193	-9.707048149926372	2361489
2361617	AI	enhancing creativity with niche construction	2010	5.2680945020386885	-7.9020206814501375	2361644
2362185	AI	let conan tell you a story: procedural quest generation	2018	5.47139029760797	-8.367578498031431	2362212
2362593	Graphics	visual programming in a computer animation environment	1990	6.291726158355155	-9.219260484098637	2362620
2362808	Robotics	investigation into game-based crisis scenario modelling and simulation system	2018	6.266160363642462	-8.2402248704679	2362835
2363098	Vision	data driven evaluation of crowds	2009	5.370174455308906	-8.629078177693781	2363125
2363200	Graphics	image-based rendering for computer synthesized human figures	2007	5.590529535420849	-9.606276199562897	2363227
2364806	HCI	chor-respondent: a dynamic system in the musical domain	2011	5.482222574282612	-8.0727329481743	2364833
2364896	Vision	three-dimensional modeling	1977	4.723225636307914	-9.682074810535877	2364923
2366652	ML	scaffolding for interactively evolving novel drum tracks for existing songs	2008	5.516009937439681	-8.693557013539937	2366679
2367727	AI	overview of interactive genetic programming approaches for conversational agents	2010	5.469023466711287	-8.217633475071073	2367754
2369186	Robotics	an interactive software for real-time simulation of through-the-wall imaging radar	2006	6.301078087179702	-9.4749574681936	2369213
2369782	HCI	temporal reasoning	1986	5.097360456288249	-9.200135142842623	2369809
2370207	AI	multi-stream exploratory projection pursuit for the formation of complex cells similar to visual cortical neurons	2002	4.78229730011926	-8.09713484991561	2370234
2370707	HCI	cameo: modeling human activity in formal meeting situations	2004	5.284246777080023	-8.84432517871459	2370734
2373166	Graphics	lightshop: interactive light field manipulation and rendering	2007	5.672559258752974	-9.581635510000245	2373193
2373287	Graphics	decomposing time-lapse paintings into layers	2015	5.456782287053888	-9.530949567109234	2373314
2373551	HCI	game play schemas: from player analysis to adaptive game mechanics	2008	4.712519062394733	-8.056718391594584	2373578
2375498	HCI	layerfish: bimanual layering with a fisheye in-place	2016	6.198623037829161	-9.43330535409542	2375525
2375643	Robotics	using a surrogate model of gameplay for automated level design	2018	4.792207633695717	-8.254104457991453	2375670
2376227	HCI	interactive artificial life based on behavior and perception in a virtual environment	2000	4.773392436450564	-9.193867655629992	2376254
2377476	HCI	real-time cinematic camera control for interactive narratives	2005	6.145936499404438	-9.7142515879092	2377503
2377687	AI	broad agents	1991	5.150443827212575	-7.992997225068892	2377714
2377903	Graphics	mesh parameterization: theory and practice video files associated with this course are available from the citation page	2007	6.199663583549492	-8.084210473656128	2377930
2378401	Graphics	rendering traditional mosaics	2003	5.841800920262878	-9.187805064253666	2378428
2378437	AI	gestalt-based composition and performance in multimodal environments	1996	4.784969898385271	-8.723356163495824	2378464
2379006	Robotics	automatic generation of aesthetic patterns with cloud model	2016	5.472247209146821	-8.703336314833148	2379033
2379231	Graphics	stroke based painterly rendering	2013	5.77609630595734	-8.803096902384214	2379258
2379809	Arch	implantbench: characterizing and projecting representative benchmarks for emerging bioimplantable computing	2008	5.459231353440722	-8.693329363174144	2379836
2380581	HCI	tactical sound garden toolkit	2007	5.792065809539758	-9.5138384029319	2380608
2380583	HCI	study of nine people in a hallway: some simulation challenges	2018	4.989866146787134	-8.47183197032318	2380610
2380860	EDA	a vrml interface for a knowledge-based structural design system	2001	5.735923961954602	-9.60501382297256	2380887
2381101	HCI	arstudio: a virtual studio system with augmented reality features	2014	5.921217734602159	-9.607594804423476	2381128
2381820	HCI	"""reflectance field rendering of human faces for """"spider-man 2"""""""	2005	5.8250055201735815	-9.160548541014672	2381847
2382424	HCI	tangent @ 23 fire	1997	6.038574451967116	-9.094427158280977	2382451
2383075	Visualization	on the expeditious modelling of buildings	2010	5.915258537911908	-9.031843272467409	2383102
2383493	Graphics	review on the state-of-the-art technologies for acquisition and display of digital holograms	2016	5.713645910632768	-8.347111166636648	2383520
2384282	Graphics	smarter photography	2012	5.327098697925685	-9.55971539367061	2384309
2384521	AI	in the dance studio: an art and engineering exploration of human flocking	2013	4.852284553170642	-8.620106044507466	2384548
2387595	HCI	stroke-input methods for immersive styling environments	2004	5.944640402109773	-9.59541650204922	2387622
2387672	Visualization	affective vr serious game for firefighter training	2018	5.264441530673143	-8.330952658603412	2387699
2388392	AI	genetic algorithms in musical style oriented generation	1994	5.353111136202425	-8.281760220307454	2388419
2388399	AI	a fitness function for creativity in jazz improvisation and beyond	2010	4.747017911263197	-8.199621342173293	2388426
2389901	NLP	kommunizierende agenten: gestische und natürlichsprachliche interaktion	1999	5.10240149145967	-8.433480246296453	2389928
2390800	AI	a model of motivation based on empathy for ai-driven avatars in virtual worlds	2009	5.2758871207956135	-8.256980016953941	2390827
2390968	EDA	the study of a creative hand hook design based on computer aided design technology	2009	5.703444345306934	-9.706790545752954	2390995
2391009	HCI	interactive high definition 3d face rendering on common mobile devices	2008	6.128192759037192	-9.262620877089402	2391036
2391092	Robotics	improvisational multi-agent organization: using director agent to coordinate improvisational agents	2005	5.241312915914418	-8.252858498931204	2391119
2391130	OS	frame rate control in distributed game engine	2005	5.573794938312769	-9.473440598549756	2391157
2391279	Graphics	metropolis procedural modeling	2011	5.759926067867793	-8.469135129817529	2391306
2391456	HCI	programming with characters	1992	5.599373522864674	-8.756265123347028	2391483
2392080	AI	affective multi-agent system for simulating mechanisms of social effects of emotions	2017	5.104980015911903	-8.433975254945246	2392107
2392137	Graphics	design and development of an interactive virtual shadow puppet play	2011	5.81947158374363	-9.625434609852796	2392164
2392306	Graphics	3d scene manipulation with 2d devices and constraints	2001	5.709742226137258	-9.673516411558376	2392333
2392990	AI	interfacing a cognitive agent platform with a virtual world: a case study using second life	2011	4.501392941408064	-8.66472982058675	2393017
2393007	AI	"""""""like-me"""" simulation as an effective and cognitively plausible basis for social robotics"""	2009	4.435962827092169	-8.512248933369044	2393034
2393419	Visualization	towards better quality in virtual environments	2005	6.171720640787579	-9.22122149220202	2393446
2394267	Robotics	development of first social referencing skills: emotional interaction as a way to regulate robot behavior	2014	5.181306471466511	-8.069851988499893	2394294
2395105	AI	evaluating the authorial leverage of drama management	2009	5.427833135077412	-8.177953501960541	2395132
2395648	Robotics	an architecture of emotion-based behavior selection for mobile robots	2001	4.663234863604095	-8.288112561232097	2395675
2396176	AI	darshak - an intelligent cinematic camera planning system	2006	5.838148723409639	-9.72443817819256	2396203
2396328	AI	procedural generation of levels for angry birds style physics games	2016	5.229610919731313	-8.635144981575355	2396355
2396937	AI	a genetic algorithm for generating improvised music	2007	5.401275099341993	-8.541989437323478	2396964
2397178	Robotics	low-cost mobile system for multispectral cultural heritage data acquisition	2013	6.1147658597379975	-8.136342503243286	2397205
2397979	Graphics	overlap operations and raster graphics	1986	6.267657042866611	-8.60432639858589	2398006
2399166	AI	level of detail ai for virtual characters in games and simulation	2010	5.8483355750347625	-8.79688284662635	2399193
2399332	AI	partially interactive evolutionary artists	2005	5.564900884976613	-8.293705664450771	2399359
2400589	Graphics	"""npr in production: animating the sung dynasty painting """"children at play"""""""	2007	5.927174995643988	-9.249546351844357	2400616
2400918	Vision	visual media retargeting	2009	5.521970718239853	-9.644788890204877	2400945
2401051	EDA	computer aided drawing system based on prediction of drawing action	2006	5.905481341564981	-9.002906017841088	2401078
2401137	Visualization	tools for richer crowd source image annotations	2012	5.578827317595408	-9.358742613832453	2401164
2401172	Graphics	sketching garments for virtual characters	2004	5.1113495569722405	-9.769749312645763	2401199
2401234	AI	theory and practice of natural computing	2013	5.377562388344962	-8.277387080920693	2401261
2401492	AI	social agents for serious games	2013	5.137074762962404	-8.259261031760133	2401519
2402131	AI	the markov pen: online synthesis of free-hand drawing styles	2015	6.136830969976776	-9.284568276974097	2402158
2402147	Robotics	3d modeling of historic sites using range and image data	2003	6.254018232743633	-8.004196678751871	2402174
2403145	Visualization	a survey of large high-resolution display technologies, techniques, and applications	2006	6.084128556303778	-9.080953734682064	2403172
2404538	DB	categorisation of geometry users	2001	5.942547924288008	-8.39337188992118	2404565
2404551	AI	utility change point detection in online social media: a revealed preference framework	2017	5.868674233492872	-7.925745692156509	2404578
2405103	AI	development of a car racing simulator game using artificial intelligence techniques	2015	4.595204371023577	-8.396027335769114	2405130
2406407	SE	3d image processing, analysis, and software development of khmer inscriptions	2016	6.264058304258242	-8.046407381228772	2406434
2407388	Graphics	foldsketch: enriching garments with physically reproducible folds	2018	5.1631557271361395	-9.63569325741408	2407415
2408286	AI	an affectively driven planner for synthetic characters	2006	4.937558730999844	-8.774888654919572	2408313
2408525	Visualization	smart data scouting in professional soccer: evaluating passing performance based on position tracking data	2018	4.487924322227908	-7.979021917674655	2408552
2408633	HCI	sensitizing social agents for virtual training	2005	4.588909868897126	-8.225129585304224	2408660
2408708	Graphics	a malleable drum	2008	5.592220580039361	-9.647221099565511	2408735
2409959	Theory	semiautomatic three-dimensional interpretation of line drawings	1984	5.870641761867916	-8.486182187505648	2409986
2410400	AI	learning-based procedural content generation	2014	4.622185626609611	-8.142787200849295	2410427
2412984	Robotics	mimicking player strategies in fighting games	2011	4.68759922726138	-8.105477678274369	2413011
2413014	AI	a computational model of situation awareness for mout simulations	2010	4.695500462342563	-7.990086334989942	2413041
2413090	AI	an agent model for nl dialog interfaces	1998	5.0106199205646265	-8.64615897302623	2413117
2413238	HPC	extending the educational scope of a particle-based simulation framework through parallelization	2010	5.680216119670678	-8.791218545518037	2413265
2413287	HCI	a compute model for augmented reality with integrated-gpu acceleration	2015	6.151775828124333	-9.442889703337617	2413314
2413425	Graphics	a survey on geometrical reconstruction as a core technology to sketch-based modeling	2005	5.918994794715929	-8.093342221351568	2413452
2413822	Graphics	semantic shape editing using deformation handles	2015	5.7060607295951895	-9.526789981157162	2413849
2415034	HCI	research on using cult3d and java to realize virtual assembly	2009	4.555618941716185	-9.172695718989827	2415061
2416567	HCI	a tangible design tool for sketching materials in products	2009	5.956536437684942	-9.603442737787693	2416594
2417530	HCI	gesture variants and cognitive constraints for interactive virtual reality training systems	2011	6.234114042277793	-8.083361389360228	2417557
2417579	Robotics	personality profiles for generating believable bot behaviors	2012	4.7386837190504725	-8.228374831020467	2417606
2417664	AI	learning constructive primitives for online level generation and real-time content adaptation in super mario bros	2015	4.602078432703807	-8.151941679108196	2417691
2417800	Graphics	the cognitive coprocessor architecture for interactive user interfaces	1989	6.087466402887978	-9.459212592764061	2417827
2417848	Graphics	function-based visualization and haptic rendering in shared virtual spaces	2008	5.763764582536665	-9.7327649635096	2417875
2418398	HCI	feasibility study of utility-directed behaviour for computer game agents	2011	4.389716336194032	-8.265969017422524	2418425
2418515	Visualization	design and implementation of geo-objects simulation and interactive visual editing tools	2006	5.917425082033567	-9.558496657632377	2418542
2419745	Visualization	real-time volume graphics	2006	5.924317813274503	-8.772803694378174	2419772
2420135	Graphics	observer dependent deformations in illustration	2000	5.809119500091565	-9.08323244204774	2420162
2420544	Visualization	augmented visualization: observing as desired	2017	5.534694251010499	-9.724201430040418	2420571
2421071	HCI	interactive modeling by procedural high-level primitives	2012	5.92540618822712	-9.07602611153366	2421098
2421967	Visualization	virtual and augmented reality for cultural computing and heritage: a case study of virtual exploration of underwater archaeological sites (preprint)	2010	6.245372770150478	-9.307988519758807	2421994
2422137	Visualization	flip visualization for web based demographic simulation system	2014	6.302136461350067	-9.339115881786443	2422164
2422861	AI	the mario ai championship 2009-2012	2013	4.387783549063918	-8.056038935478712	2422888
2423056	Robotics	a celestial map renderer based on 3d graphics system	2013	5.909427516030585	-9.467803179680423	2423083
2423307	Graphics	emergency crowd simulation for outdoor environments	2010	4.553929352168497	-9.010183676208355	2423334
2423368	HCI	creating interactive virtual zones in physical space with magnetic-induction	2011	5.908355455202932	-9.533848587111988	2423395
2424077	HCI	towards a serious games evacuation simulator	2012	4.4942363668911485	-9.609372981425457	2424104
2424267	Visualization	vade: a virtual assembly design environment	1999	5.31189934336962	-9.563709667920193	2424294
2426267	AI	validation of agent-based simulation through human computation: an example of crowd simulation	2011	5.113374203209097	-8.011942533027918	2426294
2426438	AI	applying inexpensive ai techniques to computer games	2002	4.400639718402637	-8.278243654241201	2426465
2427167	Graphics	dynamic cloth simulation: a comparative study of explicit and implicit numerical integration	2012	5.555474284605673	-9.081375899391148	2427194
2427358	EDA	an inquiry into spatial essence of architectural features through computer-aided abstraction	2008	6.077188710504295	-9.282871974325065	2427385
2428534	AI	monterey mirror: an experiment in interactive music performance combining evolutionary computation and zipf’s law	2015	5.692514341012776	-8.822292965931176	2428561
2430073	Visualization	discrete techniques for real-time inspection and interaction in virtual reality	2004	5.854537682051678	-9.527455849318585	2430100
2430268	Graphics	"""generating realistic human hair for """"the matrix reloaded"""""""	2005	5.756533367807941	-9.311014704451669	2430295
2430358	HCI	smartvisio: interactive sketch recognition with natural correction and editing	2014	6.234898802512776	-9.188919002563297	2430385
2430455	HCI	the new cards	2002	5.997433922671371	-9.276279908845783	2430482
2430757	Graphics	textural composition: aesthetics, techniques, and spatialization for high-density loudspeaker arrays	2017	6.230764930188737	-9.53190383418313	2430784
2431572	ML	a ga-based control strategy to create music with a chaotic system	2009	5.306692408578563	-8.919184975438556	2431599
2432482	AI	artificial intelligence for adaptive computer games	2007	4.93422169324379	-8.227216248676845	2432509
2432944	Graphics	computer graphics meets chaos and hyperchaos. some key problems	2006	6.1003811144888065	-8.154348594490457	2432971
2433753	EDA	tool path optimization using genetic algorithms	2007	5.527425770774744	-9.407684561899718	2433780
2433796	Visualization	real-time interactive l-system - a virtual plant and fractal generator	2010	5.913197662295572	-9.06011850486004	2433823
2433891	Graphics	cartoon hair animation based on physical simulation	2004	5.272681702509738	-9.554275306571293	2433918
2435202	Visualization	virtual reality based learning aid to understand projection and section of solids in architectural graphics	2014	6.27141821327508	-9.749590876899633	2435229
2437065	Theory	infinite 4d fish	2008	5.798725537944812	-9.134175545415948	2437092
2438329	HCI	the changing face of entertainment and the driving force behind it: computer simulation	2000	5.681977896402452	-8.960774644914324	2438356
2438700	Graphics	natural and efficient viewing parameters	1980	6.10906656205375	-9.218501504936636	2438727
2439885	AI	evolving four part harmony using a multiple worlds model	2015	5.360328363521723	-8.46162216421119	2439912
2439919	HCI	perceptual rules for building enhancements in 3d virtual worlds	2017	5.984768732338399	-9.145133052128454	2439946
2440003	HCI	exploring 3d-models in a stereoscopic way: a tool for knowledge, documentation and measurement of coltural heritage	2001	6.19794332883641	-8.995483117976132	2440030
2440158	HCI	intuitive volume eraser	2012	6.100286399934074	-9.513892817775423	2440185
2440173	AI	representing and reasoning on three-dimensional qualitative orientation point objects	2001	5.705841509940486	-7.890332409611277	2440200
2440565	HCI	etoile - an environment for team, organizational and individual learning in emergencies	2000	4.813611113289053	-8.187489051261732	2440592
2441945	HCI	recombinable game mechanics for automated design support	2008	5.715425811897565	-8.442075674472456	2441972
2442482	Graphics	bats, birds, and boggans: the simulated armies of epic	2013	5.719944198837179	-9.092360530979056	2442509
2443762	Graphics	line-based rendering with truchet-like tiles	2014	6.04929397498823	-9.090405153818258	2443789
2444339	Graphics	on generating realistic avatars: dress in your own style	2011	5.416250325811979	-9.776316467451963	2444366
2444910	AI	mining experiential patterns from game-logs of board game	2015	5.389827437179215	-8.621568133517554	2444937
2445022	HCI	social cooperation and competition in the mixed reality space experience induction machine xim	2009	4.490669224883368	-8.573419322135276	2445049
2447707	Visualization	a proposal of visualization method for critical area in computer go	2017	5.822748134911804	-8.800997029098864	2447734
2447725	Graphics	"""a versatile skin material for """"the good dinosaur"""""""	2016	5.538968643632159	-9.219785167836324	2447752
2447746	AI	thespian: using multi-agent fitting to craft interactive drama	2005	5.448997421386721	-8.473177491572718	2447773
2448857	Robotics	variant design in immersive virtual reality: a markup language for scalable csg parts	2004	6.2652150470166825	-9.042953310467814	2448884
2448963	HCI	reactive episode control system	2007	5.091122033876611	-8.516317797199882	2448990
2449250	HCI	digital joinery for hybrid carpentry	2018	5.736419238892429	-9.79875008973119	2449277
2449281	Visualization	multiple perspectives in computer graphics: arguments from perceptual grouping and renaissance art	2006	6.283694660363192	-8.028884196405041	2449308
2449769	AI	modeling emotions and other motivations in synthetic agents	1997	5.089252254296344	-8.832350919543202	2449796
2449890	HCI	on proactive helping behaviors in teamwork	2005	4.87519939344208	-8.167754875088201	2449917
2450294	Graphics	project gustav: immersive digital painting	2010	5.860688709638606	-9.66561373193982	2450321
2450320	Graphics	fur visualisation for computer game engines and real-time rendering	2014	5.799178014303912	-9.167007783324882	2450347
2450329	Graphics	analytical approach to augmenting site photos with 3d as-built bored pile models	2009	6.0398013424598345	-8.680147726133214	2450356
2452394	HPC	from biological macromolecules to drape of clothing: 50 years of computing for textiles	2007	5.186670312848004	-8.68006425109718	2452421
2454768	Graphics	fast ray tracing and the potential effects on graphics and gaming courses	2008	6.109065733929317	-8.760358389470431	2454795
2455676	SE	livecoding the synthkit: little bits as an embodied programming language	2014	6.283721202977773	-9.710564246433258	2455703
2456478	Vision	combining computer vision and physics simulations using gpgpu	2007	6.092500733367716	-8.887842321498212	2456505
2456603	HCI	assessing aesthetic criteria in the evolutionary dungeon designer	2018	5.534534172141344	-8.144003192118893	2456630
2457292	Graphics	evaluating graphic displays for complex 3d models	2002	5.972426110662504	-9.069551214422981	2457319
2460075	Vision	curvature profiles for plane curves	1972	5.823175374505557	-8.850539526446717	2460102
2461360	Vision	combining segmentations for understanding and annotating 3d objects	2008	6.061804207511202	-7.965680569971162	2461387
2461698	Robotics	lgf3 - a versatile framework for vision and image-based rendering applications	2002	5.672711062969767	-9.189855920160783	2461725
2462395	Visualization	augmented reality usage for prototyping speed up	2011	5.859855739018654	-9.518272888620293	2462422
2462623	HCI	mark millstein	2005	6.004744946091957	-8.521788854638624	2462650
2462943	Graphics	smart sketch system for 3d reconstruction based modeling	2003	5.8906348875669865	-9.213231212843706	2462970
2463741	Graphics	incorporating legal rules on procedural house generation	2008	5.885192356067108	-8.670523463887372	2463768
2464177	AI	towards automatic story clustering for interactive narrative authoring	2013	5.95705233450232	-8.27585041317768	2464204
2464805	HCI	real-time lighting design for interactive narrative	2003	5.367961037611139	-9.780975355792432	2464832
2465245	ML	an empirical fur shader	2010	5.627116927818398	-9.001694537998125	2465272
2467272	Vision	soccer: who has the ball? generating visual analytics and player statistics	2018	5.031039626907416	-9.343625410675171	2467299
2468075	Graphics	feathers for mystical creatures: creating pegasus for clash of the titans	2010	5.832543625727122	-9.154196886598502	2468102
2468347	AI	multiparty proactive communication: a perspective for evolving shared mental models	2006	5.03801080305016	-8.062735594874088	2468374
2469280	AI	a methodology for player modeling based on machine learning	2013	4.6779257059829495	-8.2016370134649	2469307
2469569	HCI	maintaining credible dialogs in a videobot system with special audio techniques	2001	5.022829879365585	-8.851381244665921	2469596
2471912	Graphics	immersive augmented reality in minutes with meta 2	2016	6.174507094201188	-9.377326701851562	2471939
2472922	Graphics	extracting 3d stylized accentuation effects from a painted image	2004	5.316670025272789	-9.47830267412726	2472949
2473190	AI	abstract depiction of human and animal figures: examples from two centuries of art and craft	2018	5.899981710719197	-9.615360883840207	2473217
2473288	Robotics	evolutionary method for robot morphology: case study of social robot probo	2016	5.364350408550398	-8.415156407061593	2473315
2475030	HCI	cutcad - an open-source tool to design 3d objects in 2d	2018	5.562835919740535	-9.600661544342671	2475057
2475286	HCI	a csp-based interactive decision aid for space mission planning	2003	4.641935163182465	-8.559054758832497	2475313
2476812	Graphics	a new form of traditional art: visual simulation of chinese shadow play	2003	5.757301919702778	-9.306697186307415	2476839
2477057	AI	sketching for military courses of action diagrams	2003	6.106773339237841	-8.279417398067968	2477084
2477098	EDA	an effective method for multi-material part design	2008	5.463225157480217	-9.21096441386741	2477125
2477981	Graphics	"""measured brdf in film production: realistic cloth appearance for """"the matrix reloaded"""""""	2003	5.6315075979324245	-9.396540682791047	2478008
2478046	Visualization	visualization of neural networks in virtual reality using unreal engine	2018	6.042146946734941	-8.893171547589299	2478073
2478572	HCI	animaatiokone: an installation for creating clay animation	2004	6.269042985103936	-9.44976872355876	2478599
2478996	AI	automatic generation of intelligent agent programs	1997	4.788149528232147	-8.014195268552603	2479023
2479914	Graphics	digital 3d imaging system for rapid response on remote sites	1999	6.11038316086187	-8.233445224633	2479941
2480634	Graphics	playable universal capture	2006	5.253903958074434	-8.988565144319654	2480661
2480853	AI	modeling preference time in middle distance triathlons	2017	4.75743864561543	-8.044598036543515	2480880
2481700	Graphics	stream-based animation of real-time crowd scenes	2012	5.687529548875974	-9.432968767883528	2481727
2481760	Visualization	visualizing dissections of the heart in a dataflow-based shader framework for volume rendering	2013	6.055160360804676	-8.23606504928396	2481787
2482679	Visualization	adaptivitree: adaptive tree visualization for tournament-style brackets	2007	4.56907943086327	-8.06534786644194	2482706
2483239	AI	controllable procedural map generation via multiobjective evolution	2012	4.86582110556359	-8.169356180003586	2483266
2484892	Networks	visualizing the circulatory problems of lisbon	2011	6.248829826702379	-9.172959599974854	2484919
2485453	ML	contour hierarchies, tied parameters, sound models and music	2004	6.142986214653468	-9.053532472001104	2485480
2486296	AI	the hats simulator and colab: an integrated information fusion challenge problem and collaborative analysis environment	2006	4.985835676385576	-8.519535522237174	2486323
2486631	Logic	using the topas solid modeling and animation system to animate science models (abstract)	1994	5.965878732081598	-8.867915370632254	2486658
2486770	AI	toward modeling emotional crowds	2018	4.658022904899199	-9.000023243105723	2486797
2486996	HCI	improving underground mine access layouts using software tools	2014	5.799577507303533	-7.9807177823839694	2487023
2487615	Theory	creating an immersive game world with evolutionary fuzzy cognitive maps	2010	4.734488147830095	-8.230003889599356	2487642
2490313	Robotics	designing reactive emotion generation model for interactive robots	2010	4.6963477585568585	-8.545783162157061	2490340
2490453	HCI	hybrid visualisation of digital production big data	2015	6.202541799987697	-9.30021173509611	2490480
2490610	Graphics	the electric sheep and their dreams in high fidelity	2006	5.630255075999707	-8.862020692450805	2490637
2491101	Visualization	histographs: interactive clustering of stacked graphs	2004	5.454040001178223	-9.003693319145741	2491128
2491379	Robotics	robot gaming and learning using augmented reality	2007	4.533628263702234	-9.487529471989673	2491406
2491955	Graphics	splitting the scene graph - using spatial relationship graphs instead of scene graphs in augmented reality	2008	5.899299954871367	-9.117238752803482	2491982
2493618	DB	state-of-the-art web technologies for progressive presentation of synthetic cultural heritage scenes	2014	6.214275144809909	-8.796831487275549	2493645
2493830	HCI	maker paper: folded light art + design	2014	5.866214746375312	-8.817720701073998	2493857
2494737	Graphics	technical section: perceptual 3d rendering based on principles of analytical cubism	2012	5.5685090734032405	-9.132595615653269	2494764
2494869	Robotics	a neural network approach to derive the horizontal spaces in typefaces	2017	5.90896151785828	-9.548794070152518	2494896
2495307	HCI	who can replace xavi? a passing motif analysis of football players	2015	4.8623236853383744	-8.139840265570266	2495334
2495533	Visualization	texture mapping algorithms for displays in virtual reality	2004	5.718075943052702	-8.930870691255091	2495560
2496759	Graphics	toward greater artistic control for interactive evolution of images and animation	2006	5.6494581028565705	-8.729002453731669	2496786
2496768	HCI	splicing-inspired recognition and composition of musical collectives styles	2017	5.673772843675379	-8.443463440227829	2496795
2498340	Visualization	visual data mining in immersive virtual environment based on 4k stereo images	2009	5.721151086502793	-9.548690610165737	2498367
2498600	HCI	generative art: fuzzy polygon clipping in program generated line oriented drawings	2004	6.1678064295232735	-8.912457004744414	2498627
2500206	EDA	from meander designs to a routing application using a shape grammar to cellular automata methodology	2012	5.586260507386964	-8.097591793189661	2500233
2500698	Graphics	modeling plant life in computer graphics	2016	5.9046707953169575	-8.265198308250355	2500725
2500899	AI	affective advice giving dialogs	2004	5.185900804861173	-8.192473102943802	2500926
2501222	Graphics	present and future color display technologies for graphics	1984	5.869170895901259	-8.714728622253151	2501249
2501641	EDA	real-time simulation of animated characters crowd in unreal engine 4	2018	5.414333518437205	-9.277967794189477	2501668
2501950	Graphics	eyeshine rendering: a real time rendering method for realistic animal eyes	2017	5.439323033125159	-9.245301968196642	2501977
2502260	Robotics	a solid model based virtual hairy brush	2002	5.528426553584863	-9.346610573977552	2502287
2502703	Visualization	situational awareness using the responsive workbench	1997	4.6640918135167535	-9.197575702557726	2502730
2503029	HCI	sceneseer: 3d scene design with natural language	2017	6.251519865322037	-9.195272572189364	2503056
2503301	Robotics	rhythm generation method for automatic musical composition using genetic algorithm	2010	5.450787536013019	-8.641245801256998	2503328
2503356	Graphics	practice and theory of blendshape facial models	2014	6.001143305595617	-8.965300507439185	2503383
2504179	DB	on the evolution of geometrical reconstruction as a core technology to sketch-based modeling	2004	5.859467550514102	-8.073546873133761	2504206
2505287	Graphics	perceiving interactive sketching through facial expressions	2012	5.635274622677804	-9.720760910368544	2505314
2506051	AI	a new approach to social behavior simulation: the mask model	2011	5.142056365309557	-7.934199823464782	2506078
2506406	AI	generalized task markets for human and machine computation	2010	4.5328237476719	-8.293701556390635	2506433
2507500	EDA	application of volumetric modeling to mechanical design and analysis	1981	5.928994667924122	-8.720635718803425	2507527
2508797	Graphics	visual immersive mathematics in 3d web	2011	6.29382083423831	-9.225568331956346	2508824
2509144	AI	a computational model based on symmetry for generating visually pleasing maps of platform games	2016	5.438085308499268	-9.69235193978536	2509171
2509319	Graphics	a lightweight, procedural, vector watercolor painting engine	2012	5.674251437316607	-9.29902794875299	2509346
2509951	Robotics	tekkotsu: a framework for aibo cognitive robotics	2005	5.455511369962019	-8.31717412572058	2509978
2509954	Graphics	art pipeline: transition from offline to realtime cg	2012	5.387136519350049	-9.800854939079604	2509981
2512018	Robotics	vegetation choreography in the good dinosaur	2016	5.739433035069013	-8.960324118574556	2512045
2512192	Graphics	layered manufacturing as a graphics display device	2005	5.4238212708117235	-9.777275488006573	2512219
2512463	Graphics	a data-mining approach to 3d realistic render setup assistance	2009	5.8773112546763695	-8.701055020453289	2512490
2513171	AI	conversational informatics and human-centered web intelligence	2007	5.23266114262762	-8.056941763538799	2513198
2514253	Graphics	edward j. girogianni and thomas e. madden: digital color management, encoding solutions - 2nd ed., john wiley & sons, ltd, 2008, 415 pp, isbn 978-0-470-51244-9	2010	5.5908648212944065	-8.682855340836781	2514280
2514265	AI	programming chip for the ijcai-95 robot competition	1996	4.650949070223242	-9.385469269339666	2514292
2516829	Visualization	a method of interactive texture design with iec	2008	5.438451310069383	-9.440015185381856	2516856
2517569	ML	automatic learning and generation of social behavior from collective human gameplay	2009	4.692528484630841	-8.856967368036269	2517596
2517781	Vision	a virtual stereographic pointer for a real three dimensional video world	1990	5.532929259297179	-9.194929806366373	2517808
2519040	HCI	knitsketch: a sketch pad for conceptual design of 2d garment patterns	2011	6.052023105507198	-9.746483298768874	2519067
2519630	AI	effective sounds in complex systems: the arkola simulation	1991	5.095408105322941	-8.97345469868003	2519657
2520775	HCI	ting tools: interactive and procedural modeling of chinese ting	2012	6.2205104118328425	-9.255436459352422	2520802
2520844	Vision	guest introduction: the changing shape of computer vision in the twenty-first century	2002	5.1212929800519085	-9.271528270761623	2520871
2522293	HCI	application of visualization in clothing thermal computational design	2018	6.165031300088081	-8.905539964233503	2522320
2522924	HCI	interacting with microseismic visualizations	2013	5.957502196996784	-9.540896000050948	2522951
2523991	Graphics	painterly rendering using limited paint color palettes	2018	5.9027036728659406	-8.508594813934298	2524018
2524050	NLP	graph grammar-based controllable generation of puzzles for a learning game about parallel programming	2017	6.0785846133228185	-9.219345974532759	2524077
2524179	Graphics	a robotic system for digital photography	2006	6.284534739930309	-8.391408112338286	2524206
2524472	AI	evaluating visual conversational agents via cooperative human-ai games	2017	4.388530676009791	-7.947974827108128	2524499
2524573	Graphics	realistic and controllable fire simulation	2001	5.417735317148717	-9.19561654602566	2524600
2525245	Graphics	inverse lighting design using a coverage optimization strategy	2016	5.5557165470263135	-9.195071747063492	2525272
2525820	AI	collaborative decision making amongst human and artificial beings	2008	5.08230409750304	-7.986830881189354	2525847
2525968	Vision	disney meets darwin-the evolution of funny animated figures	1995	4.882764460239206	-9.589261061305391	2525995
2526241	Robotics	el greco: a 3d-printed humanoid that anybody can afford	2018	4.790668757931057	-9.76717425861753	2526268
2527268	Robotics	multi-robot formation control via a real-time drawing interface	2012	5.1256982553600565	-9.792738679357589	2527295
2527540	Robotics	component-based authoring tool for haptic navigation	2015	6.300975153748256	-9.646136660123046	2527567
2527584	ML	lightshop: an interactive lighting system incorporating the 2d image editing paradigm	2009	5.883758150808357	-9.175408523925539	2527611
2527626	Robotics	evolutionary replication of calligraphic characters by a robot drawing platform using experimentally acquired brush footprint	2006	5.408460981747261	-8.652210379056193	2527653
2527826	Graphics	shape-based retrieval and analysis of 3d models	2005	5.971744356314192	-8.835957637351234	2527853
2527864	Robotics	using planning to predict and influence autonomous agents behaviour in a virtual environment for training	2013	4.7311214711025045	-8.63642391781582	2527891
2528606	HCI	learning to bridge the digital divide: centre for educational research and innovation and national center on adult literacy (ncal), oecd, paris, 2000, isbn 92-64-18288-8	2002	4.966758018222123	-9.229235467361956	2528633
2528972	DB	an introduction to chaos	1995	5.830074278918676	-7.981920718320013	2528999
2529169	AI	believable cyberpeople: a true challenge for the decade	2003	4.589526489661948	-9.286290350321874	2529196
2529383	Vision	personalized cinemagraphs using semantic understanding and collaborative learning	2017	5.9825541958255455	-9.69331868313764	2529410
2529781	Visualization	3d visualization of color data to analyze color images	2003	6.1690633294461525	-8.003331107380957	2529808
2529902	AI	guest editor's introduction: computational photography-the next big step	2006	5.900442977810097	-8.571844475692316	2529929
2530039	Graphics	a practical approach for identity-embodied 3d artistic face modeling	2014	5.327097647715148	-9.645051485830626	2530066
2531394	AI	adaptive game level creation through rank-based interactive evolution	2013	5.361350922340762	-8.270272069092066	2531421
2532321	Visualization	visualizing dynamic memory allocations	2007	6.1416252561760984	-9.056701227361204	2532348
2533151	EDA	methodology for graphic redesign applied to textile and tile pattern design	2004	6.289645219345911	-8.835264322504502	2533178
2533159	Visualization	particle dreams in spherical harmonics	2014	5.520729578992156	-8.19833255105329	2533186
2535103	Graphics	semi-automatic techniques for as-built bim façade modeling of historic buildings	2013	5.836339715564103	-8.801048068159556	2535130
2536080	Visualization	in-situ flood visualisation using mobile ar	2016	5.736542498971088	-9.237490755371693	2536107
2536552	AI	fast procedural level population with playability constraints	2012	4.512251748227898	-8.18274439182141	2536579
2537061	Graphics	adaptive walk on fitness soundscape	2009	5.240026519330937	-8.69220942615039	2537088
2537645	AI	"""a high-level """"tasking"""" interface for uninhabited combat air vehicles"""	1998	4.418374040006334	-8.89697019261258	2537672
2538484	HCI	a computational model of collaborative creativity: a meta-design approach	2011	5.7173704140181485	-8.094636855181895	2538511
2538893	AI	goal-driven approach to open-ended dialogue management using bdi agents	2012	5.021239954116228	-8.356619960617097	2538920
2538985	HPC	a hybrid web-based toolkit for human modeling	1997	6.272757669376397	-9.402477136816954	2539012
2540132	Graphics	advanced animation and rendering techniques : a watt addison-wesley, uk (1992) 840 pp, isbn 0 201 544 121	1994	6.058000968082824	-8.182264703139289	2540159
2540865	Visualization	6th sense system augmented reality chemical plant supervision system	2006	4.51301037979878	-9.376981931714962	2540892
2541535	Visualization	style grammars for interactive visualization of architecture	2007	6.252804770813718	-8.976506422868855	2541562
2541599	ML	from 3d models to 3d prints: an overview of the processing pipeline	2017	5.946583370789073	-8.446350545476335	2541626
2541965	AI	towards integrated imitation of strategic planning and motion modeling in interactive computer games	2006	4.435548653801806	-7.923508562414256	2541992
2542439	Graphics	inverse procedural modeling of 3d models for virtual worlds	2016	6.031381184608391	-8.694772268309519	2542466
2542467	AI	swarm intelligence for generative music	2009	5.1167392573413775	-8.565434962107606	2542494
2543427	Graphics	evolutionary algorithm for example-based painterly rendering	2010	5.5052599079686395	-8.776542333482512	2543454
2543479	Vision	why can't a virtual character be more like a human: a mixed-initiative approach to believable agents	2011	4.609302941970313	-9.010265539146003	2543506
2543793	Graphics	as-exact-as-possible repair of unprintable stl files	2016	5.9337880457646195	-8.446691993643439	2543820
2544217	HCI	learning design patterns with bayesian grammar induction	2012	5.663836058596747	-7.940729923448035	2544244
2545795	AI	"""how do place and objects combine? """"what-where"""" memory for human-like agents"""	2009	4.541988304021165	-8.982011785801642	2545822
2545855	Graphics	shader space navigator: a turbo for an intuitive and effective shading process	2009	5.925442329554755	-9.147661036068245	2545882
2546427	Graphics	the evolution of a graduated symbol software package in a changing graphics environment	1987	6.134758433042678	-8.151580743848172	2546454
2546889	Graphics	using scalable vector graphics to evolve art	2016	5.4267078746221	-8.381474266779222	2546916
2547378	Graphics	image-based modeling, rendering, and lighting in fiat lux	1999	5.741968741556134	-9.072620052320092	2547405
2547882	EDA	permanent records using pen-type plotters	1971	6.070787942725357	-8.862629330464054	2547909
2547957	Graphics	recent advances in real-time collision and proximity computations for games and simulations	2010	5.936853673234512	-8.872431803971367	2547984
2548486	Robotics	research on automobile sketch cooperative design based on image cognition model	2006	4.521262809180602	-9.21609744784414	2548513
2548976	AI	an approach to the electronic textbook of basic chemistry linking chemical experiments - cg teaching materials based on quantum chemical calculation	2013	5.405887238811884	-8.78087949121678	2549003
2549410	Graphics	modeling by drawing with shadow guidance	2013	5.493736182953851	-9.487991264728251	2549437
2549546	EDA	virtual customisation of product physical properties: a case of real time product stiffness customisation	2007	5.501341482356608	-9.70017148914656	2549573
2549556	Graphics	user customizable real-time fur	2002	5.8661061812301565	-8.846389895317413	2549583
2549669	SE	cevo - teaser	2009	5.842040109411625	-8.956708073490312	2549696
2550399	Graphics	adapting ray tracing to spatial augmented reality	2013	5.9761620064364696	-8.590265085219848	2550426
2550944	Robotics	robot-assisted rapid prototyping for ice structures	2009	5.013200923237688	-9.593581325216183	2550971
2550948	ML	the flowr framework: automated flowchart construction, optimisation and alteration for creative systems.	2014	5.7381219683977225	-8.301647195544005	2550975
2551838	HCI	a method to generate wet and broken-up animal fur	2000	5.6599427021934	-9.046909017118416	2551865
2552447	Graphics	interactive sketch-driven image synthesis	2015	5.351560093253337	-9.244987128802752	2552474
2553175	HCI	net-based game analysis by means of the software tool soccer	2010	4.499031253460405	-8.2788766274508	2553202
2553280	AI	narrative planning: balancing plot and character	2010	6.02615522750096	-8.452848897244168	2553307
2553858	Theory	polynomiography and applications in art, education, and science	2003	6.0971760973582985	-8.263800360116402	2553885
2555740	Visualization	simulating multiple character interactions with collaborative and adversarial goals	2012	4.930957249340773	-9.138654220089638	2555767
2556221	EDA	biomimetic computer-aided design and manufacture of complex biological surfaces	2012	5.359071577393574	-8.974587827428444	2556248
2556234	AI	steerbug: an interactive framework for specifying and detecting steering behaviors	2009	5.100393298205359	-9.026974312349939	2556261
2557013	Visualization	hyperinteractive evolutionary computation	2011	4.712154909041951	-8.07292727490193	2557040
2557514	EDA	p-smart - a virtual system for clothing thermal functional design	2006	5.569576353643519	-9.526969485471668	2557541
2558465	Visualization	navigation tools for viewing augmented cad models	2009	6.0803829142516195	-9.067301901667644	2558492
2558725	AI	towards monitoring of group interactions and social roles via overhearing	2004	5.282368676789725	-7.967027650978543	2558752
2558857	Robotics	autonomous behavior control of virtual actors based on the air model	1997	4.666801501394486	-9.215256996758123	2558884
2558919	Graphics	shapeshop: free-form 3d design with implicit solid modeling	2011	5.9015690144665625	-9.323957447058335	2558946
2560061	ECom	web-linkage viewer: finding graph structures in the web	2002	6.272030259377583	-9.66499658220208	2560088
2560151	Visualization	visualizing a sphere eversion	2004	5.5764597824994935	-9.227136796356268	2560178
2560418	Graphics	photorealism in computer graphics--past and present	1995	5.983160102445553	-8.728880711169182	2560445
2560436	Vision	vigilance latencies to aircraft detection among norad surveillance operators	1995	4.480196320179947	-9.453840668314047	2560463
2560582	Visualization	immersive vr visualizations by vfive. part 1: development	2013	5.524120792397811	-8.80131482047607	2560609
2560887	AI	evolving pop art using scalable vector graphics	2012	5.3847692208425535	-8.398005302420868	2560914
2561909	HCI	building moana's kakamora barge	2017	5.825327478916659	-9.133180478458758	2561936
2562318	Visualization	unsupervised conversion of 3d models for interactive metaverses	2012	6.082620059777173	-9.0216339220245	2562345
2563730	ML	estimating spatial layout of rooms using volumetric reasoning about objects and surfaces	2010	5.499373848667103	-9.465844702473095	2563757
2563835	HCI	computational mechanisms for mental models in human-robot interaction	2013	4.475145453206816	-9.248489993080684	2563862
2564620	Visualization	presentation of 3d scenes through video example	2017	5.709022231852352	-9.521229538923093	2564647
2564755	Logic	computer program for scissors game may infer opponent's tactics	2001	4.560753809909102	-8.006864669496254	2564782
2565196	HCI	focus and context awareness visualization techniques for 3d modelling tasks using multi-layered displays	2015	5.907438662710513	-9.793488766031599	2565223
2566819	AI	a geometric evolutionary search for melody composition	2018	5.342054478450351	-8.539820981411044	2566846
2566872	Graphics	premo: dreamworks animation's new approach to animation	2015	5.62803749450605	-9.543444274333883	2566899
2567196	Robotics	investigating fluidity for human-robot interaction with real-time, real-world grounding strategies	2016	5.220844469304182	-8.245958723386996	2567223
2568398	AI	simulating virtual humans across diverse situations	2003	4.770644244312383	-8.69968126007388	2568425
2568409	HCI	environment based on augmented reality and interactive simulation for product design review	2008	6.131456767402871	-8.57273043568007	2568436
2568485	Logic	trishearcreator: a tool for the kinematic simulation and strain analysis of trishear fault-propagation folding with growth strata	2012	5.267679530360309	-9.758952116368503	2568512
2568763	Robotics	image processing in the context of imaging science	1995	5.313522891756495	-8.976467338497887	2568790
2569234	Graphics	example-based hinting of true type fonts	2000	6.2609173625712	-9.16429899675882	2569261
2570999	Visualization	towards tangible images and video in cyberworlds--function-based approach	2010	5.686407268590575	-9.496120595621331	2571026
2572410	AI	initial approaches for extending sketch recognition to beyond-surface environments	2012	6.0780895051649555	-9.113204587646322	2572437
2572535	HCI	city lights: contextual views in minimal space	2003	5.893975092154611	-9.729097734019307	2572562
2573848	Vision	tech-tiles: exploring texture	2005	6.110786271842858	-9.626097026378512	2573875
2573930	HCI	"""""""where is my mind""""- the evolution of npcs in online worlds"""	2011	4.889024210684481	-8.348141700852594	2573957
2574094	HCI	ai isn't just for players: ai-based authoring tools	2009	4.928437068422321	-8.190895932968127	2574121
2574237	Robotics	modular robotics studio	2010	5.932233843403537	-9.548076578551894	2574264
2575014	HCI	tahuti: a geometrical sketch recognition system for uml class diagrams	2006	6.226820771984397	-8.801269548442285	2575041
2576869	Visualization	guacamole - an extensible scene graph and rendering framework based on deferred shading	2014	6.207108417879793	-8.76863016775837	2576896
2577346	Arch	rise of the graphics processor	2008	6.2284465069267245	-8.320687820525714	2577373
2577387	HCI	what would you do in their shoes? experiencing different perspectives in an interactive drama for multiple users	2009	5.559717045835288	-9.105550811570188	2577414
2577819	AI	composing cognitive agents from behavioural models in presto	2015	4.9005699535946725	-8.700244632686537	2577846
2577950	Visualization	visualizing the real world	2001	5.895604580598786	-8.168375423571195	2577977
2578216	AI	procedural generation of building blueprints for real-time applications	2010	5.393071202622827	-9.322028617036283	2578243
2578776	Vision	collaboration between computer graphics and computer vision	1990	5.804443052096213	-8.624402871007714	2578803
2579015	Visualization	the development of interactive texture designing method for 3d shapes	2010	5.426457914071845	-9.529517776499496	2579042
2579696	Visualization	populations with purpose	2011	4.760167433856001	-8.621677571801659	2579723
2580225	HCI	pushmepullyou: the reality of interaction with shared objects in networked walk-in displays.	2004	5.108540909118508	-9.289168850911752	2580252
2581732	Logic	provis : a platform for virtual prototyping and maintenance tests	1997	5.7120313032029975	-9.74641955960142	2581759
2582935	Graphics	new approaches to efficient rendering of complex reconstructed environments	2003	5.949813944198826	-8.60975052109092	2582962
2582967	Graphics	virtual reconstruction of cultural heritage artifacts	2015	6.121300695666067	-8.564228458255997	2582994
2583662	AI	multiagent simulation meets the real world	2006	4.7924870857931365	-8.51347507780925	2583689
2584333	HCI	towards a cognitive approach to human-machine cooperation in dynamic situations	2001	4.805421900431174	-8.050013328180151	2584360
2584968	AI	a survey of real-time hard shadow mapping methods	2010	6.109629047757375	-8.307440006874224	2584995
2585136	EDA	design reuse in product shape modeling: a study of freeform feature reuse by signal processing techniques	2005	6.009056973295981	-8.39209018364606	2585163
2586134	HCI	virtual reality - new methods for improving and accelerating the development process in vehicle styling and design	1998	5.484206078905129	-8.940140138482748	2586161
2586144	SE	an application of digital point cloud to historic architecture in digital archives	2011	6.190585428806994	-7.897322968559849	2586171
2586689	AI	in the news	1994	4.521116717124023	-9.631342366659586	2586716
2587456	Visualization	visualization techniques for augmented reality	2011	5.895660039892291	-9.721429758459694	2587483
2587644	EDA	resolving feature interactions in 3d part editing	1997	6.285995847089218	-8.500241713626181	2587671
2587865	Visualization	a gesture processing framework for multimodal interaction in virtual reality	2001	5.285403341880669	-9.219034958193026	2587892
2588036	Robotics	the sera ecosystem: socially expressive robotics architecture for autonomous human-robot interaction	2016	4.619620017404144	-9.206591807361225	2588063
2588158	Arch	a review and development of 3-d accelerator technology for games	2009	6.0799434915992805	-8.898229778914555	2588185
2588594	Graphics	virtual tailoring for ratatouille: clothing the fattest man in the world	2007	5.707856359505732	-9.314415335246329	2588621
2589209	Graphics	sketch interface based expressive hairstyle modelling and rendering	2004	5.340590205332989	-9.728592563073004	2589236
2589213	Graphics	the chronicles of narnia: the lion, the crowds and rhythm and huesauthor video presentations are available from the citation page	2006	5.843008580576714	-9.333698354930561	2589240
2589506	Robotics	flight simulation: research challenges and user assessments of fidelity	2004	5.186412508838533	-8.978435409247775	2589533
2591230	Graphics	shadow algorithms for computer graphics	1977	6.136230146062058	-8.171530438090505	2591257
2591404	Graphics	sketch-based crowd modelling	2011	5.7600827382082675	-9.088700941491476	2591431
2592313	AI	a rapid prototyping environment for character behavior	2011	6.0539807228563545	-9.480199043362768	2592340
2592455	HCI	a framework for execution and 3d visualization of situated cellular agent based crowd simulations	2008	4.689584006482104	-8.617666335480855	2592482
2592474	AI	a real world oriented interface technique using computer vision	1997	4.594523653193793	-9.195143563770387	2592501
2592748	HCI	"""""""you talkin' to me""""? understanding communicative intentions recruits the mirror and the mentalizing system"""	2013	5.901266444369573	-8.212156133432853	2592775
2593169	HCI	integrating model-based prediction and facial expressions in the perception of emotion	2016	5.025052122696695	-8.15249255690385	2593196
2594046	AI	on the expressiveness of line drawings	2009	5.590246743426605	-9.425822881221805	2594073
2595142	HCI	n-dimensional display interface	2016	5.689459961822497	-9.544601129939569	2595169
2595444	Visualization	problems in publishing accurate color in ieee journals	2002	6.099707620017017	-8.656433118805348	2595471
2595464	HCI	sharedo: to-do list interface for human-agent task sharing	2014	5.670236591267207	-8.921803234408538	2595491
2595483	Visualization	a hardcopy backup and reconstruction system for digital images	2009	4.586777127712996	-9.113816654781436	2595510
2595580	AI	perception simulation in social planning for emergent storytelling	2015	5.249415402719503	-8.337403499241425	2595607
2595660	Visualization	use of analogy in synthesizing novel visualizations	2008	6.072327340136206	-8.201796399901214	2595687
2595822	NLP	image generation implications for networked tactical training systems	1993	4.587131561106373	-9.105518039355438	2595849
2596055	AI	a study into preferred explanations of virtual agent behavior	2009	4.719308282977644	-8.415108625041348	2596082
2596332	Visualization	exploiting virtual objects' attributes and avatar's behavior in dves partitioning	2007	6.2809650122179095	-9.021731775947208	2596359
2596417	SE	semi-automatic methodology for augmented panorama development in industrial outdoor environments	2017	4.893937280828228	-9.507861146194653	2596444
2596598	HCI	accuracy requirements for physical models in serious games	2012	5.190569263348422	-8.219250742542263	2596625
2597198	AI	deceptive angry birds: towards smarter game-playing agents	2018	4.382331525733455	-7.974265985057912	2597225
2597819	Graphics	lazy generation of building interiors in realtime	2006	5.29314749574166	-9.159670538342462	2597846
2598122	Robotics	interactive 3d modeling with a generative adversarial network	2017	5.3178006333037455	-9.424687495371415	2598149
2598456	AI	magic in pieces: an analysis of magic trick construction using artificial intelligence as a design aid	2016	5.948319290452403	-8.782035075984345	2598483
2599319	HPC	crashing in cyberspace-evaluating structural behaviour of car bodies in a virtual environment	1998	6.2543692556315325	-8.59783040242635	2599346
2599492	Visualization	augmented virtual environments (ave): dynamic fusion of imagery and 3d models	2003	5.459701199672792	-9.506960086545398	2599519
2600459	Robotics	scratchpad: lightweight data capture tool to support mission planning	2017	4.515356089497752	-8.375146837397025	2600486
2600895	AI	a knowledge representation language for natural language processing, simulation and reasoning	2012	4.8922884758216085	-8.181852136292774	2600922
2602356	Graphics	peceptual rendering of hdr in painting and photography	2008	5.150274695609245	-9.281187180169596	2602383
2602418	Graphics	physical animation and control of simulated creatures	2003	5.474968520958285	-9.199013682574476	2602445
2602778	Robotics	dealing with feature interactions for prismatic parts in step-nc	2009	5.091294514831752	-7.950525454315718	2602805
2603413	AI	computer interpretation of human stick figures	1980	6.177012003057324	-8.791129249522593	2603440
2604345	EDA	interactive hybrid remote rendering for multi-pipe powerwall systems	2012	5.476425400367041	-9.646074485876651	2604372
2604380	Visualization	a faster method for modeling virtual colony	2004	5.006178891938913	-9.238646392884654	2604407
2605193	Graphics	morphological shape generation through user-controlled group metamorphosis	2013	6.224925819779407	-9.173834345930842	2605220
2605430	AI	behavioural reactive agents for video game opponents with personalities	2007	4.8521884800324875	-8.70400923616204	2605457
2606812	HCI	multivectors: nine components represented on a ternary diagram	2006	5.414746638843008	-8.046090848082816	2606839
2606965	HCI	"""""""seeing solids"""" via patterns of light: evaluating a tangible 3d-input device"""	2012	6.274804790680131	-9.779300539155932	2606992
2607146	Robotics	deformation-aware split grammars for architectural models	2013	5.649992563174017	-8.991465248646191	2607173
2607753	Arch	sketch-based annotations in google earth	2009	5.672996381828293	-9.478771761618294	2607780
2607948	HCI	aspect-oriented procedural content engineering for game design	2009	6.216981202432642	-8.952257204260059	2607975
2608582	AI	ms pac-man versus ghost-team competition	2009	4.39058760981304	-8.188173609558964	2608609
2609838	Graphics	300's liquid battlefield: fluid simulation spartan style	2007	5.788896882744358	-8.789781078918418	2609865
2611572	AI	breadth first search (animation and obstacle avoidance)	2012	4.701024626696053	-9.754872532260102	2611599
2612342	AI	automatic invention of fitness functions with application to scene generation	2008	5.595588760685419	-8.959046158272256	2612369
2612416	AI	situated action approach to implementing characters in computer games	1996	5.337446156974708	-8.129301493567246	2612443
2612510	Web+IR	tactical communication equipment simulation training platform based on vr	2009	5.115520951905945	-9.00994246843227	2612537
2612797	HCI	enabling hand-crafted visual markers at scale	2017	6.053649380304853	-9.489469890974286	2612824
2612970	Vision	algorithmic music composition for computer games based on l-system	2015	5.975059226091084	-9.021133188749587	2612997
2613365	Robotics	a synthetic mobile robot	1995	4.9401163995340465	-9.273099749239352	2613392
2614522	Robotics	establishing appropriate trust via critical states	2018	4.547608711228215	-8.264201676512467	2614549
2614571	AI	dynamic difficulty adjustment on moba games	2017	4.607859817418925	-8.225001037488559	2614598
2615246	Graphics	realization of seurat’s pointillism via non-photorealistic rendering	2007	5.860308210705976	-8.908738214959607	2615273
2615505	Vision	the non-photorealistic camera: automatic stylization with multi-flash imaging	2004	5.190535473146032	-9.544035610202336	2615532
2616696	AI	the hybrid agent marco: a multimodal autonomous robotic chess opponent	2014	4.388037654184172	-9.588131709105012	2616723
2617739	Robotics	open source vision library (openvl) based local positioning system	2006	5.0361809116079215	-8.909558727214177	2617766
2618444	Arch	egaku: enhancing the sketching process	2004	5.996904223004576	-9.289678427942029	2618471
2619281	Graphics	printable hydroponics: digital fabrication of ecological systems	2018	5.634127172120535	-9.31372954328118	2619308
2619516	PL	automatic design of sound synthesizers as pure data patches using coevolutionary mixed-typed cartesian genetic programming	2014	5.360573354188399	-8.589899437324771	2619543
2619668	ML	evolutionary synthesis of photographic artwork using human fitness function derived from web-based social networks	2007	5.54282835554592	-8.347135724582616	2619695
2619855	HPC	opengl sc implementation on the opengl hardware	2012	6.028263888500682	-8.32867043031231	2619882
2620074	Visualization	populating virtual environments with crowd patches and rule-based method	2012	4.820983447300678	-9.134829794356056	2620101
2620216	Graphics	hierarchical motion brushes for animation instancing	2014	5.6157188022488125	-9.23633754375489	2620243
2620982	Robotics	absolut dissection	2009	5.7376958601778485	-9.026726857671122	2621009
2621562	Robotics	user-guided inverse 3d modeling	2013	6.0159030625292775	-9.316712347757138	2621589
2621590	Arch	enformanga: interactive comic creation using drag-and-drop and deformation	2009	5.946224173650074	-9.709033478005026	2621617
2621964	Vision	inspired by sharp vision: the full hd desktop video magnifier eagle	2010	5.257700070265248	-9.708014646399374	2621991
2622638	AI	situated agents can have plans	1994	4.5859574968131795	-7.990798183792237	2622665
2623055	HCI	towards a cloud-based architecture for visualization and augmented reality to support collaboration in manufacturing automation	2017	6.128824603796627	-9.530886650262408	2623082
2624883	HCI	easigami: virtual creation by physical folding	2012	5.749589634783689	-9.560972636490924	2624910
2625371	Visualization	golf green visualization	1991	5.525335041674464	-9.539213825090203	2625398
2625401	Visualization	development of a cybercrime investigation simulator for immersive virtual reality	2017	5.179292439450432	-9.57981849720065	2625428
2626522	Robotics	augmented reality visualisation for player	2006	5.477531300912607	-9.183725736748439	2626549
2626794	Graphics	directed volcano getting the most out of your simulations	2016	5.74808481993749	-8.845436754840113	2626821
2627630	HCI	a practical framework for constructing structured drawings	2014	6.26138330845686	-8.811314413773738	2627657
2627912	Robotics	procedural weapons generation for unreal tournament iii	2015	4.6293102022500685	-8.152705169131156	2627939
2628682	Vision	hand-shadow illusions and 3d ddr based on efficient model retrieval	2006	5.2962933722435865	-9.747143688442344	2628709
2629244	HCI	toward cyber-physical research practice based on mixed reality	2017	5.993874021131768	-9.750465660613347	2629271
2629489	HCI	a human centered perspective of e-maintenance.	2014	4.463286945406544	-9.59994865425892	2629516
2629982	Visualization	multimedia integration into the blue-c api	2005	6.038494326201157	-9.716228106184	2630009
2630334	Graphics	animated skybox rendering and lighting techniques	2006	5.548908988732598	-9.460675317289226	2630361
2630501	Graphics	interactive swarm orchestra an artificial life approach to computer music	2008	5.388798311607877	-8.089477876304173	2630528
2630740	HCI	adapting models of visual aesthetics for personalized content creation	2012	5.277531116443281	-8.49218820421974	2630767
2630903	HCI	procedural level design using an interactive cellular automata genetic algorithm	2017	4.829869340009923	-8.23614793391809	2630930
2630955	AI	a further try: composing knitted patterns by playing on a multi-input device	2011	5.397586618818773	-9.682030521793642	2630982
2631448	AI	game logic portability	2005	4.5461406703180085	-9.103795022939655	2631475
2631797	Graphics	a crowd modeling framework for socially plausible animation behaviors	2012	5.045416353038176	-8.793782710410056	2631824
2632646	AI	automatic generation of game level solutions as storyboards	2008	5.8160693959666325	-8.407068834235487	2632673
2632721	Robotics	rasa: a low-cost upper-torso social robot acting as a sign language teaching assistant	2016	4.722669051544873	-9.421359113108217	2632748
2635030	Graphics	interactive ray tracing for virtual tv studio applications	2005	5.775141274287944	-9.396947817904213	2635057
2635169	AI	office layout support system using genetic algorithm - generation of layout plans for polygonal space -	2010	4.966223055951652	-9.672468265173498	2635196
2636812	Vision	a sketch-based approach to human body modelling	2009	5.007840587815299	-9.698042130266883	2636839
2636896	PL	charack: tool for real-time generation of pseudo-infinite virtual worlds for 3d games	2009	5.921496211875358	-8.682699587409811	2636923
2637284	ECom	development of werewolf match system for human players mediated with lifelike agents	2014	4.654166066008153	-9.130337204586944	2637311
2637690	Graphics	generative representations for evolving families of designs	2003	5.2310424472998704	-8.218159752206518	2637717
2638661	Vision	the numerical measure of symmetry for 3d stick creatures	2008	5.530431859928087	-8.22401390369248	2638688
2639014	AI	evolving interesting maps for a first person shooter	2011	4.621225695114653	-8.156632765886993	2639041
2639675	Robotics	intuitively specifying object dynamics in virtual environments using vr-wise	2006	6.283537568060577	-9.534274798676424	2639702
2640959	Robotics	instinctive behaviors and personalities in societies of cellular robots	1991	4.479176691398344	-8.113422656397631	2640986
2641095	ML	image-based environment matting	2002	5.377964867432213	-9.588363514411327	2641122
2641565	HCI	hierarchically animated transitions in visualizations of tree structures	2012	6.285012820824223	-8.785854336852008	2641592
2642027	AI	gameplay-driven terrain generation in scorched earth	2015	5.1855921178259345	-8.542790357709508	2642054
2642219	Graphics	photospace: a vision based approach for digitizing props	2011	5.623286269079625	-9.32353953804097	2642246
2642833	EDA	procedurally placement of tropical beach vegetation in level design tools	2009	5.752935354733242	-8.291116236700798	2642860
2643729	AI	guest editorial: physics-based simulation games	2016	4.626390156836607	-8.42061392910017	2643756
2644491	Visualization	hybrid rendering in a multi-framework vr system	2009	4.630532835163391	-9.636000397589914	2644518
2645351	Graphics	teaching of image synthesis in functional style	2005	6.184895757410978	-8.873213342253461	2645378
2645602	HCI	3d stencil face relievo making system	2016	5.429739729902066	-9.591349256790007	2645629
2645636	Robotics	light signaling for social interaction with mobile robots	2001	4.631896593434445	-8.865702162005386	2645663
2645894	AI	towards socially intelligent hri systems: quantifying emotional, social, and relational context in real-world human interactions	2017	5.441438468978928	-7.990557736572863	2645921
2645935	HCI	inviwo agents: write once, display everywhere	2003	5.412405063290602	-9.042854483655344	2645962
2646063	AI	handling spatial vagueness in virtual agent control	2007	4.559425592880388	-8.808534469241904	2646090
2646626	Graphics	the lit sphere: a model for capturing npr shading from art	2001	5.54198195831215	-9.49373668126132	2646653
2648400	AI	an authoring tool for modeling the narrative flow in a virtual training application	2014	5.501493858977993	-8.41800185335755	2648427
2648868	HCI	occlusion aware digital colouring for comics	2014	5.491147282099623	-9.509446145753648	2648895
2649363	Vision	demo: a distributed virtual vision simulator	2011	4.875417149313243	-9.735065849720858	2649390
2649609	Robotics	art to smart: an evolutionary computational model for bharatanatyam choreography	2012	5.351246532565392	-8.395847506961282	2649636
2650808	EDA	a novel form design and cad modelling approach	2008	5.7759676954651376	-8.98249234357493	2650835
2650899	Theory	teaching towards network science: cross-disciplinary focus for foundational skills.	2009	6.0387522739395765	-8.352223731340192	2650926
2651020	Robotics	an example of performing art with robot	2016	5.186665313369444	-9.677692108754712	2651047
2651087	AI	a model and inferencing mechanism for spatial reasoning with manufactured components	1997	5.062535773638065	-7.917412820057062	2651114
2651365	Visualization	soap bubbles: part 2	2000	5.70086941216875	-9.643864213486069	2651392
2653619	HCI	preserving the past: the development of a digital historical aerial photography archive	1996	6.2965427541549	-8.264156233918907	2653646
2653652	Graphics	improv: a system for scripting interactive actors in virtual worlds	1996	5.458530417558014	-8.805723766683412	2653679
2654404	HCI	a serious game based on a public goods experiment	2013	4.985025255281754	-8.246121129918945	2654431
2654929	HCI	an evolutionary algorithm to create artificial soundscapes of birdsongs	2016	5.108468478298047	-8.295610341702853	2654956
2655029	Graphics	data-driven computer graphics	2003	5.54503388349183	-8.959202669868825	2655056
2655390	ML	empirical investigations into the believability of robot affect	2008	5.347288513385755	-8.051710049807994	2655417
2657272	Robotics	a preliminary application of panoramic supervision system in construction site	2001	5.374569849032148	-9.379761679919117	2657299
2657366	AI	learning agents and enhanced presence for generation of services on the grid	2005	4.732316715613481	-8.38032562121056	2657393
2657403	Visualization	making augmented reality practical on mobile phones, part 2	2009	6.2398501951402725	-9.442661101402537	2657430
2657590	ML	automated processing of data from 3d scanning of cultural heritage objects	2010	5.815570959330849	-8.508867063550605	2657617
2657679	Theory	designing molecules and crystals by computer	1989	5.250350002859745	-8.580939251682496	2657706
2658291	Robotics	quickset: multimodal interaction for simulation set-up and control	1997	4.690154433202144	-9.73801278598521	2658318
2659414	SE	what you see is what you test - augmenting software testing with computer vision	2017	5.0535192350134155	-9.241379799766733	2659441
2661019	Visualization	a low-cost drafting system based on a personal computer	1984	6.268632965719644	-9.136691055184906	2661046
2661886	AI	the role of oblivion, memory size and spatial separation in dynamic language games	2002	5.173300481784848	-8.278510103602036	2661913
2662256	Graphics	creative spatial interpretation of freehand sketches	2013	6.1671107072193205	-8.549215007692679	2662283
2662337	Robotics	combining local and global optimisation for virtual camera control	2010	4.97426895019805	-9.102065557928173	2662364
2663068	Graphics	point-based computer graphics	2004	6.178854031380759	-8.407483272871646	2663095
2663170	AI	user involvement in collaborative decision-making dialog systems	2016	4.682955396951222	-8.789590053285139	2663197
2663229	Robotics	analysis of bidirectional information transfer on drumming ensemble using robotic session system	2012	4.40779967837557	-9.21835320449709	2663256
2664740	AI	using artificial intelligence techniques for intelligent simulation in memory re-education	1990	5.9641752321856965	-9.10913990326802	2664767
2665330	Visualization	evolving a logo design using lindenmayer systems, postscript & grammatical evolution	2008	5.278448175835346	-8.223385289625599	2665357
2665848	HCI	dealing with parameterized actions in behavior testing of commercial computer games	2005	4.5002987309988365	-8.171278436080728	2665875
2666031	AI	bayesian inference of self-intention attributed by observer	2018	4.891560448038861	-8.251645518764915	2666058
2666304	AI	creating affective autonomous characters using planning in partially observable stochastic domains	2017	4.792690448558956	-8.133795511941496	2666331
2667384	AI	extraction of a cartoon's topology	2014	5.95953545325312	-8.969579158251204	2667411
2667722	Robotics	the mummer project: engaging human-robot interaction in real-world public spaces	2016	4.381743066503978	-9.570252087799394	2667749
2668218	Graphics	untangling hair rendering at disney	2011	5.830701909456486	-9.298906064776286	2668245
2668777	Vision	requirements of a stereo workstation for the gis environment	1993	6.001582860073465	-9.340388282296457	2668804
2670350	EDA	visualizing reliability in mems vr-cad tool	2003	5.753471662860258	-8.490428699477947	2670377
2670759	Graphics	user-assisted integrated method for controlling level of detail of large-scale b-rep assembly models	2018	5.7024492644182825	-8.199464617017792	2670786
2671066	Graphics	digital reproduction of hair waving based on animator technique	2018	5.390198664901737	-9.573060939948077	2671093
2671766	HCI	expixel fpga: multiplex hidden imagery for hdmi video sources	2015	5.673700387485428	-9.202092617578426	2671793
2672033	Visualization	an evaluation algorithm for the complexity of distributed 3d rendering	2018	5.54009042222452	-9.065525479632909	2672060
2672062	AI	using ambient intelligence to control aggression in crowds	2011	4.844673126118313	-8.268100126243377	2672089
2672347	HCI	evolving 3d buildings for the prototype video game subversion	2010	5.523793970896484	-8.395704072007454	2672374
2672786	HCI	the planetary simulator for understanding planetary phenomena by multiple viewpoints	2008	5.534882541772555	-8.012929010973586	2672813
2673842	HCI	design support tool using pen device for simplification of animation design	2015	6.240245763965657	-9.418392561628838	2673869
2674003	HCI	shader programming: an introduction using the effect framework	2004	6.166955001558536	-8.974175305047906	2674030
2674849	EDA	mental imagery as a design tool	1997	5.748850259844617	-8.203353632305562	2674876
2674999	AI	automated gameplay generation from declarative world representations	2015	5.5733400160385	-8.277134130620732	2675026
2675344	Graphics	massive autonomous characters: animation and interaction	2006	5.659248848995639	-9.374096791272477	2675371
2675943	Vision	representing and reasoning about object functionality: towards an integrated approach	1996	4.750797116946405	-9.106943629800329	2675970
2676401	HCI	linguistic and location effects in compliance with pesticide warning labels for amateur and professional users	2004	5.907346554778282	-8.575175962838557	2676428
2676970	Graphics	dynamic skin deformation and animation controls using maya cloth for facial animation	2002	5.664106783192268	-9.570924306269749	2676997
2677671	Vision	scene assembly for large scale urban reconstructions	2001	5.9838165085293875	-8.737406130874863	2677698
2678340	NLP	racing bib numbers recognition	2012	5.60418595797347	-9.096811946470124	2678367
2679403	Graphics	constraint-based shaping of gestural performance	2003	6.138860911642448	-9.746671274314954	2679430
2679660	Theory	visual explanation of the complexity in julia sets	2013	6.135157293305397	-8.010845102526243	2679687
2679720	Visualization	an implementation review of occlusion-based interaction in augmented reality environment	2009	5.892193305826968	-9.72129170992104	2679747
2680165	Graphics	floral diagrams and inflorescences: interactive flower modeling using botanical structural constraints	2006	6.1473958772804815	-8.647285689215893	2680192
2680740	Graphics	evolution of digital images	2002	5.884176538508568	-9.197177598354424	2680767
2681778	HCI	advanced human-computer interface and voice processing applications in space	1994	4.384754364019133	-9.603405011792775	2681805
2682045	Graphics	audio spray gun 0.8 - the generation of large sound-groups and their use in three-dimensional spatialisation	2015	5.9416248039470005	-8.944943087495101	2682072
2682279	Visualization	shader integration in a virtual reality framework	2013	6.079765391298385	-9.053875162401823	2682306
2682407	AI	ai-based games: contrabot and what did you do?	2015	4.522618942287718	-8.157910239331269	2682434
2682556	Visualization	design of plastic spur gears using virtual reality	2014	4.879480750694066	-9.682587176516009	2682583
2682588	ML	why dissect a frog when you can simulate a lion?	1996	4.709011476580791	-8.040263266675941	2682615
2682692	AI	evolution of artificial terrains for video games based on accessibility	2010	5.154355149380165	-8.548861619941269	2682719
2683060	HCI	combinatorial creativity for procedural content generation via machine learning	2018	5.189065578414828	-7.908509733518728	2683087
2683520	Robotics	six necessary qualities of self-learning systems - a short brainstorming	2011	4.7583743453955964	-7.975334486647626	2683547
2684114	DB	forecasting the next shot location in tennis using fine-grained spatiotemporal tracking data	2016	4.683777196047357	-8.526895828823479	2684141
2684418	AI	equipping a lifelike animated agent with a mind	2001	4.668664140334409	-8.593643314688492	2684445
2684957	HCI	cooperation between reactive 3d objects and a multimodal x window kernel for cad	1995	5.833652259897724	-9.470542460056363	2684984
2685521	ML	using expert knowledge for distributed rendering optimization	2011	5.324639169242116	-9.11727586488489	2685548
2685603	AI	analysis of regen as a graph-rewriting system for quest generation	2014	5.9763282894279275	-8.080838718308938	2685630
2686697	Visualization	analyzing urban daylighting ambiences by walking in a virtual city	2007	4.946589339507853	-9.590140798796616	2686724
2687467	AI	autonomous agents and human interpersonal trust: can we engineer a human-machine social interface for trust?	2013	4.6948251743337766	-8.114571437178201	2687494
2687980	Graphics	the perception and description of line drawings by computer	1972	6.014130483840151	-8.25646927877588	2688007
2688090	HCI	productivity & play: a first-person shooter for fast and easy scene design	2017	5.995076721560509	-9.474430048331813	2688117
2688733	AI	text to 3d model of chinese ancient architecture	2018	5.900083830394393	-8.585775242088182	2688760
2689088	AI	from inter-agent to intra-agent representations - mapping social scenarios to agent-role descriptions	2014	5.4486674942285145	-7.970011205603766	2689115
2689546	AI	human mosaic creation through agents and interactive genetic algorithms applied to videogames movements	2007	5.291217663933233	-8.50235960287651	2689573
2690222	Graphics	"""nature """"tzu-jan"""""""	2008	5.770487289131405	-9.236384234935807	2690249
2690433	Visualization	3d computational steering with parametrized geometric objects	1995	6.201644637426932	-8.877207980113752	2690460
2691124	Robotics	an observation of human comprehension through wood joints assembly of a cube puzzle	2015	5.980790374158461	-9.548210003197527	2691151
2691168	HCI	a framework for socially communicative faces for game and interactive learning applications	2007	6.280007667038491	-9.699049720745624	2691195
2691377	Graphics	style and abstraction in portrait sketching	2013	5.2259069722547915	-9.480258079676085	2691404
2691389	HCI	beyond the visible - infrared imaging for museums	1995	6.100997746463639	-8.31362621725419	2691416
2691878	NLP	semiotic schemas: a framework for grounding language in action and perception	2005	5.2851410278436735	-7.892787915205883	2691905
2691919	AI	evolving l-systems with musical notes	2016	6.01139369995987	-9.050362982949675	2691946
2692562	HCI	roboshop: multi-layered sketching interface for robot housework assignment and management	2011	6.060248749224099	-9.378824709063739	2692589
2693166	AI	evolving models of player decision making: personas versus clones	2016	4.590311488250781	-8.073622064383473	2693193
2693834	HCI	geoscape: designing a reconstructive tool for field archaeological excavation	2001	6.243509723124518	-8.487043808756015	2693861
2694438	Graphics	producing pre-render/in-game shared character asset	2009	5.643943883251736	-9.572489791205177	2694465
2694530	Graphics	constructive roofs from solid building primitives	2016	5.868630990636944	-8.579975103741104	2694557
2696588	AI	generating situation awareness for time critical decision making	2011	4.665656551103528	-7.9882129214420114	2696615
2696911	AI	procedural level balancing in runner games	2014	4.723538127362204	-8.134787781827008	2696938
2697332	Visualization	multi-perspective compact explosion diagrams	2011	6.277300941794887	-8.392304579971839	2697359
2697705	Robotics	spatial strategies in human-robot communication.	2002	4.528697762933264	-9.325005960305432	2697732
2697793	Graphics	oddworld stranger cg intro	2004	5.834405923352872	-9.049242770994512	2697820
2697949	DB	adaptive multi-sensor, multi-actuator media workflow system for interactive arts	2005	4.950670566348523	-9.4587593636289	2697976
2698225	Graphics	sketching reality: realistic interpretation of architectural designs	2008	5.884890746368088	-8.770947724516631	2698252
2698479	HCI	rakugacky: making sounds with drawing	2013	6.094272988015003	-9.322461170300725	2698506
2698642	Graphics	appearance-mimicking surfaces	2014	5.705303816819629	-8.848335901326513	2698669
2699031	Visualization	building a worldwide photorealistic virtual environment by switching between subenvironments	2001	5.697995551251161	-9.667382476710108	2699058
2699734	NLP	generating paths with wfc.	2018	5.561531151787731	-8.970443355275451	2699761
2700174	AI	development of virtual agents with a theory of emotion regulation	2008	4.842527198009879	-8.423824680026524	2700201
2700285	HCI	evolving personalized content for super mario bros using grammatical evolution	2012	4.836885969337676	-8.249363763526349	2700312
2700321	Graphics	directable anime-like shadow based on water mapping filter	2009	5.490781493853458	-9.332500783442358	2700348
2700557	Graphics	a screen-space formulation for 2d and 3d direct manipulation	2009	6.021007583540029	-9.718480411131626	2700584
2700820	EDA	application of an artificial immune system in a compositional timbre design technique	2005	5.340055196172067	-8.455562560193776	2700847
2701143	HCI	t.a.c: augmented reality system for collaborative tele-assistance in the field of maintenance through internet	2010	4.6687166359488135	-9.790192752440094	2701170
2701379	Graphics	3d computer-graphics world by stage setting model	2005	5.8411967311115855	-9.251255921665956	2701406
2701436	Graphics	"""lighting reconstruction for """"the matrix reloaded"""": (sketches_0314)"""	2005	5.721937724939033	-8.878549500430111	2701463
2702222	HCI	a new ar authoring tool using depth maps for industrial procedures	2013	5.517864664708188	-9.788601216546725	2702249
2702445	SE	performance and precision: mobile solutions for high quality engineering drawings	2015	6.264456540554567	-8.101835469253857	2702472
2702936	HCI	cooking effects	2007	5.921278966170055	-9.309544345998967	2702963
2704135	Robotics	robots in harmony with humans	2016	4.446570642809774	-8.702024129014083	2704162
2704192	ML	brownian snake measure-valued markov decision process	2013	4.564241786620003	-8.033699039796844	2704219
2704699	Visualization	putting real-world objects into virtual world: fast automatic creation of animatable 3d models with a consumer depth camera	2012	5.3038588712606485	-9.779532032566276	2704726
2704883	Visualization	visualization for situational awareness	2000	5.6741924173091745	-9.04917724298684	2704910
2705051	AI	from computational emotional models to hri	2013	5.266968694410308	-8.405656987555897	2705078
2706015	AI	wavefunctioncollapse is constraint solving in the wild	2017	5.007689974738698	-8.058031218985024	2706042
2706311	Graphics	constrained palette-space exploration	2017	5.569296339495467	-9.266346422127226	2706338
2706437	Robotics	designing robot personalities for human-robot symbiotic interaction in an educational context	2016	4.4043071582844115	-8.922732820202771	2706464
2706729	Visualization	an agent-based framework for intelligent optimization of interactive visualizations	2013	5.4092654230544825	-8.305553633980901	2706756
2707118	HCI	populations of populations: composing with multiple evolutionary algorithms	2012	5.304913529615541	-8.440242262653737	2707145
2707584	HCI	web 3d indoor authoring and vr exploration via texture baking service	2016	5.9251874252573264	-9.708608326709266	2707611
2708412	HCI	interactive generation and modification of cutaway illustrations for polygonal models	2009	6.2450375289679565	-9.189746178457783	2708439
2708624	Graphics	design and fabrication by example	2014	5.5324666821583985	-9.10414156930804	2708651
2708657	Visualization	la guitarrista gitana	2002	5.606109290586634	-9.750341580606204	2708684
2708998	NLP	precious, tiny and shiny: close-range photogrammetry for artists and others	2017	5.8613810428440525	-8.804040707466092	2709025
2709020	Graphics	virtual material acquisition and representation for computer graphics	2018	6.174668861965767	-8.479744213928493	2709047
2709917	DB	performance and precision: mobile solutions for high quality engineering drawings	2015	6.220589634522664	-8.159358082313604	2709944
2709944	Theory	an approach to understanding geometrical configurations by computer	1980	5.453880917786644	-7.8894222271522185	2709971
2710630	Graphics	creating 3d human character mesh prototypes from a single front-view sketch	2018	5.557881822268157	-9.534295138504886	2710657
2712323	Robotics	automating inspection and documentation of remote building construction using a robotic camera	2005	4.6823650695892445	-9.69103099840385	2712350
2712403	Robotics	ar-planning tool - designing flexible manufacturing systems with augmented reality	2002	5.926544548502035	-9.465549714648304	2712430
2713459	Graphics	el desván	2004	5.825057844574532	-9.174054360636461	2713486
2714434	Graphics	a sketch-based articulated figure animation tool	2011	5.619264820106686	-9.474633508691523	2714461
2714801	HCI	ketsuro-graffiti: a canvas with computer generated water condensation	2015	5.933091202314726	-9.409201028238817	2714828
2715687	Visualization	portraying and understanding large-scale distributed virtual environments: experience and tentative conclusions	1995	6.166632920280667	-8.819905571986913	2715714
2716632	Graphics	sampling, synthesis, and input devices	1999	5.1733571728375445	-9.366998223200428	2716659
2717446	Graphics	towards artificial systems: what can we learn from human perception?	2010	4.724695678918299	-8.136483619257929	2717473
2717544	Graphics	example-based data optimization for facial simulation	2016	5.1212934167231365	-9.805497532810877	2717571
2718567	AI	rational dialog in interactive games	2007	4.5335571544110715	-7.997617157390603	2718594
2718901	ML	generating a werewolf game log digest of inferring each player's role	2016	4.9471770689023495	-7.941437452837875	2718928
2719017	Visualization	display electronics	2007	4.826791357625118	-9.664420615076663	2719044
2720196	HCI	high dynamic range video for cultural heritage documentation and experimental archaeology	2010	5.644126541463747	-9.263235948549159	2720223
2720500	DB	interior spatial layout with soft objectives using evolutionary computation	2016	5.600841775333582	-7.9880709881331935	2720527
2720584	HCI	procedural animation technology behind microbots in big hero 6	2015	5.846941194346536	-9.152095292965832	2720611
2721952	HCI	mercedes benz campaign-cdi concept	2009	5.950482565255218	-9.043734304247064	2721979
2722026	Visualization	keynote address: immersive exploration of large datasets	2011	6.169908034381452	-9.079809595365058	2722053
2722075	HCI	design evaluation of virtual clay models using selective laser sintering	1998	5.800315600428679	-8.334497370581683	2722102
2722738	Graphics	stylizing animation by example	2013	5.4641934066982945	-9.455838318041527	2722765
2723296	HCI	a comparison study: sketch-based interfaces versus wimp interfaces in three dimensional modeling tasks	2009	6.216809569568743	-9.775605174239088	2723323
2723813	AI	interfacing a cognitive agent platform with second life	2011	4.509468242690385	-8.665765245314079	2723840
2723935	Graphics	broadening our collaboration with design	2006	6.103266535371271	-8.833559572427149	2723962
2723998	HCI	suited for performance: fast full-scale replication of athlete with fdm	2017	5.6054886253917005	-9.656934280294662	2724025
2724214	AI	the decentralized pianola: evolving mechanical music instruments using a genetic algorithm	2004	4.9160498617949075	-9.096735985646092	2724241
2724540	Visualization	the shift x parity watch algorithm for raster scan displays	1985	5.498973052452266	-9.15420211700133	2724567
2724561	HCI	evolutionary and swarm design in science, art, and music	2008	5.3810997008667645	-8.429569251476837	2724588
2724586	NLP	der semantic building modeler - ein system zur prozeduralen erzeugung von 3d-gebäudemodellen	2013	5.9510239582305005	-8.7182476328551	2724613
2725086	Graphics	a review of behavioural animation	1999	5.322186679755911	-8.858130728261196	2725113
2725579	Robotics	to see and to be seen in the virtual beer garden - a gaze behavior system for intelligent virtual agents in a 3d environment	2009	4.714968938909442	-9.684160394989847	2725606
2726811	Embedded	soft real-time scheduling in google earth	2012	5.665534691564733	-9.152224416856166	2726838
2727272	Graphics	non-photorealistic rendering of yangzhou school painting for koi animation	2018	5.627076316588751	-9.29214311939193	2727299
2727516	Vision	a novel associative network accomodating pattern deformation	1997	5.569967605956918	-7.931002808848332	2727543
2727580	Graphics	hand-drawn looking volumetric effects in the peanuts movie	2015	5.799383247094282	-9.332964974679225	2727607
2728584	Graphics	interactive trajectory analysis: the graphic rocket system	1969	5.086396700502335	-8.551478990825343	2728611
2729845	EDA	sesame: towards better 3d conceptual design systems	2006	6.274393817083131	-9.058002535125157	2729872
2729857	Robotics	emotions for intelligent agents in crisis management simulations: a survey	2012	5.04224372529204	-7.9797164052632334	2729884
2730372	HCI	the fireworks effect: exploring trajectory sets in time	2002	5.871979158960477	-8.277577592657517	2730399
2730438	Vision	applications of face analysis and modeling in media production	2013	6.182792250188057	-8.889123463993878	2730465
2730646	AI	plot monitoring for interactive narrative games	2007	5.134887835296646	-8.167116090323551	2730673
2730749	HCI	interaction techniques for navigation through and manipulation of 2d and 3d data	2002	6.157332903257452	-9.550048377787762	2730776
2730841	Graphics	learning a manifold of fonts	2014	6.240940125590212	-9.173637870353927	2730868
2732928	Graphics	easy modeling of realistic trees from freehand sketches	2012	5.238799522426972	-9.522934831017515	2732955
2733016	Vision	hybrid approach to the construction of triangulated 3d models of building interiors	1999	5.331929927524078	-9.600627184032417	2733043
2733592	AI	context-aware petri net for dynamic procedural content generation in role-playing game	2011	5.666972480381416	-8.114615911483801	2733619
2733879	SE	logical product models for automated scripting of process-level construction animations	2008	5.882089718707707	-7.944438704442112	2733906
2734416	Visualization	a three-dimensional building authoring tool based on line drawing understanding	1996	5.594459282857512	-9.131994929560744	2734443
2735153	AI	lsinvaders cross reality environment inspired by the arcade game space invaders	2013	4.836904686710716	-8.41176780753534	2735180
2735300	Web+IR	exploiting visual information in programming by demonstration	2002	4.535186091986823	-9.565447184153117	2735327
2736819	Robotics	dynamic quest generation in micro missions	2012	5.2345008605656895	-8.199267861265968	2736846
2738366	AI	just a cog in the machine: participatory robotics as a tool for understanding collaborative learning and decision-making	2007	4.54109433442141	-8.662158674946406	2738393
2738444	HPC	a scalable intermediate representation for remote interaction with soft tissues	2007	5.975484312782734	-9.204183278242864	2738471
2738754	Robotics	comprehensive semantics in robotic intelligence and communication: necessity and feasibility	2015	4.4733021537605175	-8.320465537878354	2738781
2739791	Graphics	combining polygonal and subdivision surface approaches to modelling and rendering of urban environments	2004	5.956555640506649	-8.559737325517384	2739818
2740353	PL	step: a scripting language for embodied agents	2004	5.524383193136723	-8.877223278942422	2740380
2740670	AI	solid model reconstruction from engineering paper drawings using genetic algorithms	2003	5.398052151525969	-8.894453509010484	2740697
2740834	EDA	haptic aided soft-touch multi-material product design	2006	5.520894510286501	-9.555566646516084	2740861
2741804	Graphics	extra detail addition based on existing texture for animated news production	2015	5.386978103134968	-9.379612777275236	2741831
2741813	HCI	a requirements analysis for videogame design support tools	2009	6.1067918492296185	-8.399939171531242	2741840
2741859	Vision	computer pattern recognition of printed music	1971	6.015656012306553	-9.032091386396276	2741886
2743271	HCI	visual shaditor: a seamless way to compose high-level shader programs	2006	6.259051534232155	-8.912248294290789	2743298
2743692	HCI	a sketch-based system for highway design	2011	6.0867520004583024	-7.953338713295307	2743719
2744724	Graphics	evoboids: co-design of a physical and virtual game using artificial evolution	2016	5.346492556332512	-8.652244516008459	2744751
2744772	HCI	the silent power: applications of research in medical x-ray combining with photography and digital graphic design	2012	6.069364060166885	-8.501077437204275	2744799
2744917	SE	learning from experience in the engineering of non-orthogonal architectural surfaces : a computational design system	2013	5.702055626478188	-8.742789000166248	2744944
2745299	AI	a unified framework for 3d non-photorealistic rendering	2006	6.152730900538344	-8.933482566283754	2745326
2745643	HCI	an intelligent ide for behavior authoring in real-time strategy games	2008	5.782810804027963	-8.357614224052094	2745670
2745667	NLP	fuzzy linguistic facial caricature drawing system	1998	5.524726174005671	-9.096396848348704	2745694
2746156	AI	modeling network controller decisions based upon situation awareness through agent-based negotiation	2013	4.490057874145042	-8.452507780112562	2746183
2746256	Robotics	adaptation of an autonomous creative evolutionary system for real-world design application based on creative cognition	2013	5.202428378281557	-8.007332697983966	2746283
2746288	Graphics	dynamic motion models	2002	5.1552866923832905	-9.433369302158287	2746315
2746743	ECom	synthetic and natural hybrid coding for interactive broadcast tv	2002	4.998668288675608	-9.802556189164893	2746770
2747009	HCI	3d effects box for bridging 3d scan and 3d print	2013	6.005196694644822	-8.568979057738142	2747036
2748341	AI	experiences with cicerobot, a museum guide cognitive robot	2005	4.399340732774876	-8.874737144509208	2748368
2748667	Robotics	ga-based music arranging for guitar	2006	5.379049017666013	-8.532522294057706	2748694
2749688	AI	pherogenic drawings - generating colored 2-dimensional abstract representations of sleep eeg with the kants algorithm	2012	5.129434808917238	-8.088670837245076	2749715
2751598	Vision	slow art with a trillion frames per second camera	2011	5.209926060684625	-9.32622047316958	2751625
2751887	Robotics	lumibots: making emergence graspable in a swarm of robots	2010	4.8955177939528935	-9.096356227870997	2751914
2752020	Vision	automatic evolution of conceptual building architectures	2011	5.460242212097622	-8.268575083008784	2752047
2752123	Visualization	computer-generated physical models for scientific and engineering visualization: vr - v = r	1997	6.113317541988693	-8.087276683854821	2752150
2752524	AI	an integrated agent for playing real-time strategy games	2008	4.4007920352247	-8.02922560700348	2752551
2754197	PL	space-free shader programming: automatic space inference and optimization for real-time shaders	2008	5.919954742549858	-8.449286156410881	2754224
2754506	HPC	plasma simulation data through the hololens	2018	5.50443443778134	-8.153679960326416	2754533
2755301	Graphics	arte - an adpative rendering and transmission environment for 3d graphics	2000	6.093631276481547	-8.447778091427061	2755328
2755379	Visualization	symbiosis of virtual reality and scientific visualization system	1996	6.293255537706948	-8.261437195763236	2755406
2756741	DB	contents production techniques using web3d	2003	6.210320804729087	-9.123616251653663	2756768
2757182	Visualization	a universal rapid modeling method on virtual human for virtual reality	2016	5.232141084622287	-9.32312277194107	2757209
2757217	Graphics	beady: interactive beadwork design and construction	2011	5.742621800519358	-9.13091162747769	2757244
2757389	AI	autonomous evolution of digital art using genetic algorithms	2016	5.153663529476003	-8.359460985775263	2757416
2758012	SE	boosting mechanical design with the c++ ooml and open source 3d printers	2012	6.2914085384930605	-8.669190340985914	2758039
2758041	Graphics	animated sweepers: keyframed swept deformations	2004	5.898140819551637	-9.237733791102649	2758068
2758391	Graphics	the efx editing and effects environment	1996	5.635809723871731	-9.46721431368798	2758418
2758715	Graphics	character shading of uncharted 4	2016	5.824885962403916	-9.47090887590904	2758742
2758858	Robotics	bitbot-a modelling and simulation platform for robots	2008	5.993820904458857	-9.26621435692618	2758885
2759693	EDA	development of a design tool for building integrated photovoltaics	2001	6.021417470233054	-8.374556302860933	2759720
2760718	Robotics	interlocking structure assembly with voxels	2016	5.703844352213558	-8.584201834905835	2760745
2761485	HCI	demonstrating the feasibility of automatic game balancing	2016	4.508840245103786	-7.994022607013665	2761512
2761949	Robotics	deliberative control components for eldercare robot team cooperation	2015	4.400528297282756	-8.494525124165778	2761976
2762264	Graphics	an interactive artificial ant approach to non-photorealistic rendering	2004	5.467259561298758	-8.763484301961478	2762291
2762360	HCI	yet another statistical analysis of bob ross paintings	2015	5.654691858129313	-9.201811375754387	2762387
2763236	Robotics	building a virtual reality system for intelligent agriculture greenhouse based on web3d	2017	6.117889230494063	-8.037448189627272	2763263
2763611	Graphics	"""dynamic simulation of wing motion on """"reign of fire"""""""	2002	5.743315531428356	-9.410448872145974	2763638
2764174	HCI	evolutionary and biologically inspired music, sound, art and design	2016	5.378156236264792	-8.535809425741407	2764201
2764215	Visualization	cave visualization of the icecube neutrino detector	2014	5.567867504511352	-8.166893109283025	2764242
2764332	Robotics	mahindra earthmaster: a game used in training heavy construction equipment	2012	4.51344472128896	-9.80630982354717	2764359
2764428	EDA	automated production of schematic maps for mobile applications	2006	6.192953854876058	-7.957385718814971	2764455
2765160	AI	protocol e: an implementation of a novel, agent based, control scheme for real time strategy games	2014	4.8437641628227714	-8.344701818665007	2765187
2766168	Visualization	nonlinear projection for the display of high dimensional distance data	2005	5.526390126719898	-8.011283880624037	2766195
2766273	Graphics	kizamu: a system for sculpting digital characters	2001	5.765224818790421	-9.238916439006172	2766300
2767121	Robotics	3d scanning documentation of two different objects — the king's chinese cabinet in wilanow palace museum and a roman gravestone from archeological excavations in moesia inferior as a part of multidisciplinary research	2012	6.1109401419971014	-8.269653838744503	2767148
2767136	AI	keeping the patient asleep and alive: towards a computational cognitive model of disturbance management in anaesthesia	2007	4.525706654362123	-8.722154890527673	2767163
2767276	Visualization	invrs: a framework for building interactive networked virtual reality systems	2006	6.271883816916328	-9.371472225111503	2767303
2767563	HCI	enhancing player experience using procedural level generation	2018	4.8024277243006965	-8.20305819577154	2767590
2768076	Robotics	evolving dungeon maps with locked door missions	2018	5.3327462539118615	-8.478011630484056	2768103
2768361	HCI	crafting colorful objects: a diy method for adding surface detail to 3d prints	2017	5.543900842121235	-9.770848928399504	2768388
2769294	AI	incorporating emotion perception into opponent modeling for social dilemmas	2017	4.756939815748078	-8.038286613476696	2769321
2770383	EDA	interactive beautification: a technique for rapid geometric design	2007	5.5260926933767855	-9.175991044897588	2770410
2770970	HPC	application of physics engines in virtual worlds	2002	6.0512055433960725	-9.152795354177787	2770997
2771025	AI	analysis of semantic features in free-form objects reconstruction	2016	5.246071129596778	-8.978486909861424	2771052
2773391	AI	a protocol for creating multiagent systems in ensemble with pure data	2014	5.233308592899191	-8.694065912974205	2773418
2773511	EDA	haptic modeling in the conceptual phases of product design	2005	5.735731727656847	-9.560527407302883	2773538
2775779	HCI	crowd simulation	2007	4.776272208941519	-9.20011134713364	2775806
2776454	HCI	a technology fusion approach for augmented reality applications	2006	6.099561782354566	-7.978238074901914	2776481
2776995	Visualization	geometric and textural blending for 3d model stylization	2018	5.497414639663494	-9.615603079043524	2777022
2777382	Graphics	user-assisted image compositing for photographic lighting	2013	5.5854628132395545	-9.366272629323372	2777409
2777612	EDA	capturing aesthetic intention during interactive evolution	2006	5.704272427395115	-8.568875781363246	2777639
2777830	Graphics	data chunking and interface display design	1993	5.368426136375042	-9.419133294603029	2777857
2777890	Robotics	image display in teaching image processing part ii: color images	2007	6.123671030951372	-9.176460284999012	2777917
2778199	Graphics	from chaos and cosmology: a new space for the visual arts	2001	6.156059061382762	-8.324318326376966	2778226
2780008	Mobile	a musical framework with swarming robots	2007	4.928661911098913	-8.915908274913102	2780035
2780286	EDA	fuzzy cognitive agents in shared virtual worlds	2005	4.933895729072871	-8.352836873219497	2780313
2780487	AI	interpreting non-3-d line drawings	1995	6.129128337034707	-8.037347140678474	2780514
2780687	AI	interactive knowledge integration in 3d cloth animation with intelligent learning system	2006	5.040636054360335	-9.1897266431157	2780714
2780701	AI	from 2d to 2.5d i.e. from painting to tactile model	2014	5.716677769499269	-9.108619348557664	2780728
2781660	HCI	planning characters' behaviour in interactive storytelling	2002	5.176159154359273	-8.431123889300967	2781687
2783077	HCI	intelligent virtual agents in collaborative scenarios	2005	5.061569065448516	-8.357137344660643	2783104
2783183	AI	content determination through planning for flexible game tutorials	2011	4.730175568559913	-8.529028982203213	2783210
2783568	NLP	an investigation on conversion from tacit knowledge to explicit knowledge in hand lay-up fabrication method	2015	5.697304314583594	-8.922962492655605	2783595
2783649	HPC	automatic generation of battle maps from replay data	2018	6.201217922674978	-8.685886321467995	2783676
2784402	Vision	talk to the hand: generating a 3d print from photographs	2015	5.679196419498871	-9.049313890827763	2784429
2787100	HCI	create free-form digital shapes with hands	2005	6.1305749539688446	-9.395909648034145	2787127
2790804	AI	on chatbots exhibiting goal-directed autonomy in dynamic environments	2018	4.474733587639669	-8.667447902179088	2790831
2790890	Graphics	illumination modeling and generation of realistic images using internet technologies	2005	5.811029927461722	-9.34707504970615	2790917
2790913	Visualization	fast and scalable position-based layout synthesis	2018	5.553480074540285	-9.184076637835807	2790940
2791347	Graphics	particle systems - a technique for modeling a class of fuzzy objects	1983	5.526704161651959	-8.846855188553096	2791374
2792101	Graphics	a framework for physically based forest fire animation	2009	5.346545650990242	-8.152993177797308	2792128
2792428	Visualization	porting legacy applications to immersive virtual environments - a case study	2007	6.272437910594085	-8.803344073556566	2792455
2792630	AI	ant- and ant-colony-inspired alife visual art	2015	5.271626903102184	-7.956807921858572	2792657
2792704	HCI	a new ar interaction for collaborative e-maintenance system	2013	5.829289980360589	-9.472552475683418	2792731
2793311	Arch	a wearable computer for quality assurance inspectors in a food processing plant	1997	4.377343305123593	-9.675768022501464	2793338
2794864	Embedded	camouflage as an adaptive control system: applications for multimedia and interactive composition	2016	5.676657558494402	-8.961390632901642	2794891
2794901	EDA	a new cubic b-splines design method for pen input environment	2009	5.5176452230273405	-9.400270087794773	2794928
2794963	Graphics	iwires: an analyze-and-edit approach to shape manipulation	2009	5.407209253758211	-8.662471421048915	2794990
2795086	Robotics	accurate modelling of roman lamps in conimbriga using high dynamic range	2008	6.186350235671247	-8.187770724220163	2795113
2795509	Robotics	painting creation method by impression feedback to a painting generator from an impression estimator	2016	5.563137268635453	-9.670225822044227	2795536
2796850	ML	computational aesthetics as a tool for creativity	2005	5.959455408533021	-8.244952613012963	2796877
2797856	AI	structured tiles: directed subgraphs of recurring path patterns in board games	2009	5.880697450285227	-8.235060572474389	2797883
2798356	Robotics	toward further innovation in human-machine systems	2016	5.042411391984441	-7.938827548330095	2798383
2798426	Graphics	design automation for customized apparel products	2005	5.342018667479136	-9.244200880707444	2798453
2798507	HCI	predefined manikins to support consideration of anthropometric diversity by product designers	2007	6.014991309373912	-9.017282227302593	2798534
2800205	Graphics	animating typescript using aesthetically evolved images	2016	5.531815156448027	-8.570309586242221	2800232
2800554	Vision	tools for procedural generation of plants in virtual scenes	2009	5.768115051256388	-9.044419728175477	2800581
2801021	Visualization	physically based thermal feedback for real time user interaction in virtual environments	1999	5.358027292491227	-9.414493829542344	2801048
2802789	HCI	design machines	2015	4.899019563276664	-9.760099092035947	2802816
2803614	Visualization	study on realization of dynamic interaction with cad complex model in virtual reality system	2011	5.966398085353442	-9.055069513932326	2803641
2803759	AI	genetic hierarchical music structures	2006	5.5732737733400715	-8.404373179575074	2803786
2804401	Vision	if all the world's a stage: the impact of global illumination on the entertainment and architectural lighting art	1996	5.734021912322827	-8.655474377634022	2804428
2804651	HCI	algorithmically flexible style composition through multi-objective fitness functions	2012	5.421585590157049	-8.214235022310595	2804678
2804933	Robotics	social networking for robots to share knowledge, skills and know-how	2012	4.469350383109037	-9.229156653905804	2804960
2806348	AI	polyphonic accompaniment using genetic algorithm with music theory	2012	5.335566444384708	-8.486133733547652	2806375
2806356	AI	estimation of player's preference for cooperative rpgs using multi-strategy monte-carlo method	2015	4.597730176017016	-7.977978070312607	2806383
2806480	AI	explanation in human-agent teamwork	2011	4.704513856802729	-8.339219537005283	2806507
2806492	Graphics	composing with swarm algorithms - creating interactive audio-visual pieces with flocking behavior	2011	5.311260578760779	-7.961709021896403	2806519
2807617	Vision	efficient shading system based on similar shader retrieval	2009	5.657081969101037	-9.206493522190868	2807644
2808117	Graphics	curvethis: a tool to create controllable massive crawling	2012	5.718188525936992	-9.50033241823267	2808144
2808152	Graphics	smart camera system-on-chip architecture for real-time brush based interactive painting systems	2010	5.675802732450359	-9.707916935128893	2808179
2809866	HCI	evolution of a vfx voxel tool	2002	5.980860259776129	-8.752807954119877	2809893
2810653	Graphics	game asset considerations for facial animation	2013	5.417933194182352	-9.172930175577509	2810680
2810672	Robotics	restoration of broken earthenware using close range photogrammetry and a cad system	2000	6.204902782165721	-8.248049953304589	2810699
2814014	HCI	joinery: parametric joint generation for laser cut assemblies	2017	5.668057495786643	-9.348333991486241	2814041
2814166	AI	constrained videogame content generation with answer set programming	2012	5.250197786866456	-8.092282278162799	2814193
2814538	Visualization	concepts and techniques for integration, analysis and visualization of massive 3d point clouds	2014	4.756645316598187	-8.383751553096822	2814565
2814644	HCI	pointing the finger; a role for hybrid representations in vr and video?	2003	5.878568774686968	-9.40288202274895	2814671
2814891	Graphics	bin can can	2002	5.883358261904896	-9.7160871908572	2814918
2815179	AI	evo-cbg - an evolutionary system for automatically generating character behaviours for game environments	2012	4.7331394195377685	-8.176315176584971	2815206
2815313	Graphics	a procedural geometry modeling api	2012	6.1734144974914775	-8.348176861995865	2815340
2818638	AI	evolving simple art-based games	2009	6.0108556696029805	-8.626658128759217	2818665
2819628	Vision	automatic generation and analysis of physics-based puzzle games	2013	5.1472609017879485	-8.368198337851823	2819655
2820131	Graphics	a procedural ocean toolkit	2006	5.717234718415583	-8.887302338162685	2820158
2820497	AI	kill the dragon and rescue the princess: designing a plan-based multi-agent story generator	2014	4.924185552384402	-8.310262720293544	2820524
2820658	AI	metacognition in software agents using classifier systems	1998	4.444563486050513	-8.204967291540086	2820685
2822207	AI	computational creativity in the culinary arts (abstract only)	2015	5.361006177483709	-8.195207771780268	2822234
2822341	Robotics	mexi: machine with emotionally extended intelligence	2003	4.37834805847104	-9.363067502974484	2822368
2823191	Robotics	search-and-rescue using team of robots	2005	4.467216390418834	-9.188153814229336	2823218
2823366	AI	procedural floor plan generation from building sketches	2015	5.761242073012669	-8.683853778098115	2823393
2824010	HCI	digital reunification of the parthenon and its sculptures	2003	6.006694706380213	-8.611703873014893	2824037
2824168	HCI	sketch-based pipeline for mass customization	2013	5.718018024081164	-9.604876742897718	2824195
2824239	Graphics	real-time crying simulation	2009	5.371853517914571	-9.728736151827778	2824266
2825514	HCI	towards music fitness evaluation with the hierarchical som	2008	5.130451372133161	-8.013622596064392	2825541
2826082	AI	dating and authentication of rembrandt's etchings with the help of computational intelligence	2001	6.05391397816929	-8.125828625281262	2826109
2826150	AI	laika's digital big boards	2017	4.877803355282705	-9.406219805523305	2826177
2826366	HCI	score-based recommendation for efficiently selecting individual virtual agents in multi-agent systems	2017	5.103765949411688	-8.904973450303737	2826393
2826437	Graphics	imagetimer: a traditional approach to 3d character animation	1998	5.743036498478272	-9.334085943254989	2826464
2827265	AI	media3: the virtual hologram	1997	5.514784932250366	-9.660640831475822	2827292
2827517	AI	a logical approach to high-level agent control	2001	5.067101175226736	-8.320689105267215	2827544
2827605	Robotics	generation of pencil sketch drawing	2013	5.6680574656653295	-9.25842811444325	2827632
2829838	HCI	racing to the finish line: effects challenges on cars 3	2017	5.829719867495581	-8.853190473750436	2829865
2830270	Visualization	temporally coherent real-time labeling of dynamic scenes	2012	6.2006030429406485	-8.87163664857216	2830297
2830743	NLP	fashion-gen: the generative fashion dataset and challenge	2018	6.160664681798769	-9.460851060728396	2830770
2831315	AI	sensenet: 3d objects database and tactile simulator	2017	4.704588254789268	-8.257772431193839	2831342
2831394	Visualization	visualizing a tennis match	1996	6.166623814096012	-9.180818485131613	2831421
2832763	EDA	design from zeroth principles	2016	6.000230002071578	-8.706671691032486	2832790
2833505	Vision	towards a computer vision shader language	2011	6.143487509212871	-8.62356478775735	2833532
2834317	HCI	glass tube gamelan design for preparation on installation art applications	2013	5.078940054797745	-9.722159048524354	2834344
2834734	Graphics	the birth of sandman	2007	5.877710031042024	-8.982897702404129	2834761
2835049	AI	spontaneous avatar behavior for human territoriality	2010	4.970389819964132	-8.712713177112443	2835076
2835986	Logic	ball-receiving skill dependent on centering in soccer simulation games	1998	4.382937618488675	-8.314431234040313	2836013
2835993	HCI	secondary motion for performed 2d animation	2017	5.477804525904441	-9.500855466517047	2836020
2836721	Graphics	lighting controls for computer cinematography	1997	5.513939054796778	-9.52182808077848	2836748
2836725	AI	the gridbrain: an heterogeneous network for open evolution in 3d environments	2007	4.698693066528252	-8.682020708077411	2836752
2837587	Graphics	a system for the quality inspection of surfaces of watch parts	2012	5.672648640066656	-9.099300853304227	2837614
2837676	AI	dealing with the emotions of non player characters	2017	4.920802762668417	-8.553347856205043	2837703
2837985	Robotics	enabling rapid end-to-end programming of mobile manipulators	2017	4.461194572812067	-9.714492133331877	2838012
2839013	AI	using a team of general ai algorithms to assist game design and testing	2018	4.397657293007805	-8.121630528825229	2839040
2839535	Vision	chinese painting rendering by adaptive style transfer	2018	6.078219659682267	-8.575724681398594	2839562
2840422	Robotics	automatic generation of the periodic hair motion of 3d characters for anime production	2018	5.3027564595535575	-9.593767929438178	2840449
2840964	AI	learning by demonstration for a collaborative planning environment	2012	4.697701926205262	-8.200120593505321	2840991
2841510	AI	a multi-agent approach to distributed rendering optimization	2007	5.307176157749393	-8.951117549799866	2841537
2841876	Visualization	genesis: new media art created as a visualization of fluid dynamics	2017	6.196845646888376	-8.388546163858111	2841903
2842477	Visualization	a practical approach to direct manipulation blendshapes	2012	6.3076943668150935	-8.967219135048856	2842504
2842566	HCI	enabling self-aware smart buildings by augmented reality	2018	4.897645513594439	-9.481599058959844	2842593
2844146	AI	a survey on the need and use of ai in game agents	2008	4.494756303973638	-8.121816517889844	2844173
2844586	Robotics	rapid morphological exploration with the poppy humanoid platform	2014	4.5113678774123285	-9.621679481308556	2844613
2847177	HCI	progressive ray casting for volumetric models on mobile devices	2018	6.041647624215652	-9.014107013538098	2847204
2848561	Vision	software video coding for handheld conferencing	1999	5.688970696439707	-9.760140711242396	2848588
2849590	Graphics	traditional cel animation look with 3d renderers	1996	5.9630951450448135	-8.891596091788339	2849617
2849901	AI	a generic approach to challenge modeling for the procedural creation of video game levels	2011	5.128555848003048	-8.337232638679923	2849928
2852342	Robotics	jazz sebastian bach: a ga system for music style modification	2006	5.327332091130828	-7.907283944682626	2852369
2854534	AI	an authoring tool for an emergent narrative storytelling system	2007	5.274061719904887	-8.261849219932925	2854561
2854605	Graphics	learning a shared shape space for multimodal garment design	2018	5.262274909817184	-9.735857789471764	2854632
2856093	HCI	synthetic biology manipulations in 3d printed wet-ware	2013	4.527212968950503	-9.736395827480663	2856120
2856175	EDA	an intelligent system to setup meetings, capture, organize and record information in smart offices	2013	4.402836329265188	-9.64073533889594	2856202
2856872	Graphics	inverse design of urban procedural models	2012	6.043314220154243	-8.354080969858144	2856899
2857152	HPC	7 automatic generation of behaviors, morphologies and shapes of virtual entities	2008	5.401523381278834	-7.9100717097816196	2857179
2858196	NLP	fear and the behaviour of virtual flocking animals	2007	4.530104863102708	-8.26130455008994	2858223
2858456	Visualization	comprehensible visualization for augmented reality	2009	5.67894047689062	-9.718605134481717	2858483
2858864	Robotics	generation and implementation of mixed-reality, narrative performances involving robotic actors	2001	5.296541572074383	-9.731268493943457	2858891
2859182	AI	dancing, dance and choreography: an intelligent nondeterministic generator	2009	4.897911700301013	-8.213276825337488	2859209
2859441	Visualization	vr studio: solid modelling in a virtual reality environment	2007	6.007246091965038	-8.867728462968621	2859468
2860351	HCI	an adaptable card game for older users	2011	5.602455791229174	-8.62802829138325	2860378
2860670	Graphics	the science of shape: revolutionizing graphics and vision with the third dimension	2007	5.779755690819137	-9.408434810909892	2860697
2861285	Graphics	artistic rendering of portraits	2013	5.72715650506199	-9.257919938941571	2861312
2861424	Graphics	fast and reusable facial rigging and animation	2007	5.336501771317831	-9.64867862751766	2861451
2861630	Vision	a distributed virtual storytelling system for firefighters training	2003	4.4983428743965455	-8.594597289438521	2861657
2861977	Crypto	treatise of digital reconstruction and restauration of lace porcelain	2018	5.898551354218786	-8.492022649327483	2862004
2862701	HCI	shape enhancement for rapid prototyping	2010	5.669577759557023	-9.238860463493053	2862728
2863101	HCI	optimization of platform game levels for player experience	2009	4.850669742467242	-8.276050609976554	2863128
2863709	HCI	game designers training first person shooter bots	2012	5.0405100362628765	-8.44160314820938	2863736
2863917	Visualization	the reality model of the plum tree based on speedtree	2010	6.0772844423761745	-8.367807973335562	2863944
2865981	Visualization	jupiter ascending: constructing large scale environments	2015	5.818034877344514	-9.01997963342352	2866008
2866348	ML	optimizing the oriental painting shader for 3d online-game	2007	5.795883624999684	-9.179545772353087	2866375
2866553	Robotics	synthetic perception for intelligent virtual agents	2014	4.853974846111116	-8.54712683589916	2866580
2867231	AI	query-enabled behavior trees	2009	5.315656855030519	-8.285808369888281	2867258
2867314	HCI	multimodal metric study for human-robot collaboration	2008	4.602074024195817	-9.378141398569582	2867341
2867341	Robotics	effects of quantified instructional tool on spray-up fabrication method	2015	5.698203869163677	-8.919095772228035	2867368
2867546	AI	believable self-learning ai for world of tennis	2016	4.422276391765454	-8.460371012684313	2867573
2867558	Vision	textile pattern generation technique based on quasi-regular pattern theory and their transform	2008	6.0797391191114745	-8.359747633174177	2867585
2867939	SE	tangible visual analysis: brushing in a mixed-reality environment	2017	6.118363860322599	-9.723667166019403	2867966
2868191	Vision	a 3d reconstruction pipeline for digital preservation	2009	6.056852770440656	-8.37863222932734	2868218
2868886	EDA	chewing surface modeling technique for computer-generated tooth restorations	2004	5.506916717546242	-8.772187923671702	2868913
2869592	Visualization	an alternate way to generate virtual worlds:a study of image processing technology for synthetic sensations	1996	5.5237156088087405	-9.771327634981313	2869619
2870901	Robotics	constructing comprehensive behaviors: a simulation study.	2005	4.800424826388606	-8.186731223562775	2870928
2871098	Vision	3d modeling of static and dynamic scenes	2004	5.007352866564241	-9.401763108722617	2871125
2871175	AI	from vision to multimodal communication: incremental route descriptions	1994	6.2647365209450845	-7.985771134471112	2871202
2871340	HCI	direct and immediate drawing with cnc machines	2017	6.133399483770994	-9.677611527087336	2871367
2871696	Robotics	process analysis of manufacturing of sewing scissors by all forging process and understanding of its sharpness	2015	5.447301624627887	-9.403055993524466	2871723
2872069	Vision	designing an action selection engine for behavioral animation of intelligent virtual agents	2005	4.888177116694691	-8.620630770117593	2872096
2872177	Visualization	lstmvis: a tool for visual analysis of hidden state dynamics in recurrent neural networks	2018	5.579680674427682	-7.969816827125339	2872204
2872251	AI	crowd simulation in 3d virtual environments	2016	4.739023044647605	-8.698818680046026	2872278
2872254	Robotics	cad interface for automatic robot welding programming	2004	5.029345990666126	-9.448991647827745	2872281
2872614	Visualization	virtual recovery of excavated relics	1999	5.876876505471925	-9.201404836441231	2872641
2873151	AI	procedural content generation for real-time strategy games	2015	5.3056266817545525	-8.197188670533201	2873178
2873232	NLP	joint handling of rational and behavioral reactions in assistant conversational agents	2010	5.2497316261009335	-7.906835636935233	2873259
2873333	Robotics	the icub humanoid robot: an open-systems platform for research in cognitive development	2010	4.512059064526602	-8.836597027151054	2873360
2873417	AI	bending common music with physical models	2008	5.6460623544673405	-9.467069711658816	2873444
2873688	DB	evaluation of virtual world systems	2001	5.720769473547412	-9.522271143367494	2873715
2874449	HCI	on realism of architectural procedural models	2017	6.021464963901202	-9.224752942064411	2874476
2874611	Graphics	statistic analysis of millions of digital photos	2008	4.4170218133355785	-9.701360981081132	2874638
2875385	HCI	differential interactive games: the short-term predictions	1999	5.138221367976024	-8.094170692580821	2875412
2875732	Visualization	a python based 4d visualization environment	2012	6.3006657139637765	-8.344576642210061	2875759
2875876	Visualization	a 3-d graphics display system with depth buffer and pipeline processor	1984	5.73285523568927	-8.743356963964754	2875903
2875897	Visualization	collaborative virtual training with physical and communicative autonomous agents	2014	5.0409335184703	-8.822112958993372	2875924
2876397	AI	nuwar: a prototype sketch-based strategy game	2005	4.810927972625613	-8.129186946054688	2876424
2876622	AI	distributed interactive narrative planning system	2006	5.011042522727681	-8.251597934830103	2876649
2877182	HCI	"""rigging the oceans of disney's """"moana"""""""	2016	5.9580362174928725	-8.783950399830607	2877209
2878468	Robotics	composing a high fidelity hla federation for littoral operations	2009	4.682993875586713	-8.232492103479668	2878495
2878948	AI	the illusion of agency: two engineering approaches to compromise autonomy and reactivity in an artificial system	2009	5.528309155579411	-8.175384630907763	2878975
2879459	Graphics	a demo of a dynamic facial ui for digital artists	2011	6.083045706947463	-9.651521811393426	2879486
2880182	ML	incorporating human relationships into path planning	2013	4.40996693122679	-8.858157823782372	2880209
2880442	ML	an analysis of case representations for marathon race prediction and planning	2018	4.510795725685657	-7.94391803510295	2880469
2880552	ML	the digital archive of sculptures of tien-shen poo in early taiwan history	2010	5.828523070454882	-9.662737563541523	2880579
2880653	Robotics	soccer player'fs pose recognition by creative search for generating free viewpoint images	2009	5.896713610287741	-8.931359351882781	2880680
2880889	AI	intrinsically motivated general companion npcs via coupled empowerment maximisation	2016	4.652594050089776	-8.052005125755832	2880916
2880965	HCI	creating driving behavior for artificial agents in a social augmented micro-world	2012	4.674720024880043	-8.540530929745072	2880992
2882195	Graphics	creating a live real-time performance-captured digital human	2016	5.854494747368817	-9.746963047092224	2882222
2882261	Visualization	a virtual-decision-maker library considering personalities and dynamically changing preference structures for interactive multiobjective optimization	2017	4.99644388275798	-8.202148726874277	2882288
2882603	HCI	grease pencil: integrating animated freehand drawings into 3d production environments	2015	5.816860397447102	-9.672142318400828	2882630
2882887	HCI	ants--augmented environments	2004	6.209290380546927	-9.149262129210703	2882914
2883198	HCI	modelling emotional trajectories of individuals in an online chat	2012	5.509842990212575	-8.120351531750536	2883225
2883276	HCI	conceptual object exchanges among software games by non-programmers	2015	4.582082544617481	-9.438723517686679	2883303
2883452	PL	bricknet: sharing object behaviors on the net	1995	5.724501479619732	-8.67053776878776	2883479
2883521	HPC	shadow wim: a multi-touch, dynamic world-in-miniature interface for exploring biomedical data	2010	5.166016289944807	-9.330240846048817	2883548
2883736	Visualization	modeling of artificial life based virtual fish behavior	2006	4.858472074747613	-8.853434916017399	2883763
2884172	HCI	an offline planning approach to game plotline adaptation	2010	5.471085738046904	-8.228120136838449	2884199
2884247	Visualization	virtualactor: endowing virtual characters with a repertoire for acting	2008	5.347937451333483	-8.464764419677596	2884274
2884719	Graphics	extending grammatical evolution to evolve digital surfaces with genr8	2004	5.190405855377495	-8.456566563502774	2884746
2885832	AI	prolog-scripted tactics negotiation and coordinated team actions for counter-strike game bots	2016	4.413018453438758	-8.111194835121648	2885859
2886208	Visualization	detailed 3d reconstruction of large-scale heritage sites with integrated techniques	2004	5.954133694913679	-8.815036284204607	2886235
2886760	Graphics	programmable 2d arrangements for element texture design	2017	6.004066753819528	-8.888128120439942	2886787
2887503	Robotics	behavior selection method for intelligent artificial creatures using the degree of consideration-based mechanism of thought	2011	4.70942957261278	-8.034682310805962	2887530
2887891	DB	koko: architecture and methodology for engineering social affective applications	2009	5.319978943610457	-8.48725785133305	2887918
2888606	Graphics	capturing and re-using rendition styles for non-photorealistic rendering	1999	5.7270586546544715	-9.190475554541472	2888633
2888862	Visualization	versatile scenario guidance for collaborative virtual environments	2015	5.572216957293611	-9.07413494771205	2888889
2888928	Visualization	flare: fast layout for augmented reality applications	2014	5.695471651571324	-9.204915801809776	2888955
2889207	Vision	increasing efficiency and quality in the automatic composition of three-move mate problems	2011	4.8029517032865146	-8.121287173276032	2889234
2891637	HCI	visorama 2.0: a platform for multimedia gigapixel panoramas	2010	5.850885448624327	-9.434957280194538	2891664
2891660	AI	ki 2008: advances in artificial intelligence	2008	4.5973684342509165	-8.96014552084541	2891687
2893253	Visualization	framework for virtual cognitive experiment in virtual geographic environments	2018	6.187828204049411	-7.983919233797632	2893280
2893293	Graphics	faking dynamics of cloth animation for animated films	2010	5.129579669084878	-9.625678228915016	2893320
2894429	Graphics	digital animation: repercussions of new media on traditional animation concepts	2010	5.859037488319991	-9.46299971201668	2894456
2894791	Vision	computer vision	2017	6.189559462053658	-8.829021203750974	2894818
2894856	HCI	cado: a supporting system for flower arrangement	2012	6.0388283316119535	-9.542220424996184	2894883
2895036	AI	a behavioural control framework for computer animation using ai techniques	1995	4.5441380042860935	-8.918549036830731	2895063
2895462	HCI	toward empathic agents for defusing toxic behaviors on team competition games	2017	4.946991463327518	-8.011194263673017	2895489
2897428	AI	mglair agents in virtual and other graphical environments	2005	4.628895482500453	-8.802843492035288	2897455
2897505	Graphics	improving l-system music rendering using a hybrid of stochastic and context-sensitive grammars in a visual language framework	2011	5.972204674375957	-9.180404444602237	2897532
2898764	HCI	the ocean and water pipeline of disney's moana	2017	5.910367020214101	-8.940911856709091	2898791
2899946	ML	an application of computer animation in the study of dynamical aspects of nonadiabatic transitions in the li-h2 system	1985	5.073227758594781	-9.153709416463057	2899973
2900309	Theory	the exact online string matching problem: a review of the most recent results	2013	5.048585541625767	-8.206660715899558	2900336
2900800	Visualization	automating the construction of large-scale virtual worlds	1995	6.043196600238381	-8.094203806511821	2900827
2901571	Visualization	a survey on projector-based pc cluster distributed large screen displays and shader technologies	2007	6.286524839263551	-9.329394231598489	2901598
2903105	Visualization	towards immersive modeling - challenges and recommendations: a workshop analyzing the needs of designers	2000	6.293461862167045	-9.567048884930582	2903132
2903450	Visualization	a framework for rapid evaluation of prototypes with augmented reality	2000	5.3579146121094725	-9.792103972159005	2903477
2903686	Graphics	neat particles: design, representation, and animation of particle system effects	2007	5.473678027425579	-8.864871414521742	2903713
2904685	Visualization	sea of images: a dense sampling approach for rendering large indoor environments	2003	5.975634632783801	-8.933364911903746	2904712
2905346	Robotics	agent auto-generation system: interact with your favorite things	2017	5.107070020546717	-8.75227557730661	2905373
2905467	Robotics	implementation and evaluation of an iec-based 3d modeling system	2001	6.0217516118305525	-8.798309963693603	2905494
2906270	Graphics	contact visualization	2016	5.433173619337024	-9.650558164259733	2906297
2906437	AI	organization of the basic agent	1991	4.426803697687519	-8.49224720374068	2906464
2907141	AI	genetic algorithms and the abc music notation language for rock music composition	2008	5.459651842394859	-8.499576258042012	2907168
2907610	HCI	virtual prototyping with low-end 3d graphics programs	1994	6.0563551656839545	-9.373441830644726	2907637
2908131	Graphics	facial animation by reverse morphing on a sequence of real images: application to film and video production	2000	5.931251343976201	-9.496676381115364	2908158
2908588	Visualization	enhanced visualization of landscapes and environmental data with three-dimensional sketches	2009	6.162922707849888	-8.46625216530396	2908615
2909221	AI	progress in detection of axis-aligned planes to aid in interpreting line drawings of engineering objects	2005	6.058469612040954	-8.98307184838734	2909248
2910556	Vision	getting to grips with 3d modeling	2004	5.539393451674871	-9.64815545581764	2910583
2911056	Visualization	gears of war 4: custom high-end graphics features and performance techniques	2017	5.977241572435106	-8.821187461822465	2911083
2911639	Logic	active capture: automatic direction for automatic movies	2003	5.953096148690322	-9.706216241219078	2911666
2911668	AI	testing variation of attention capacities in a complex auto-adaptive system: a stroop task simulation	2012	4.38790144868181	-8.411963201240118	2911695
2912526	NLP	acquiring common sense knowledge from smart environments	2010	4.811981575135211	-8.534456005728428	2912553
2912938	Visualization	on the 3d documentation of the igel column — original and copy: structured 3d survey and analytical 3d information system	2013	6.281021349362616	-7.894970935002557	2912965
2912997	Robotics	robotcub: an open framework for research in embodied cognition	2004	4.531674370958969	-8.773046486205754	2913024
2914939	HCI	random and raster: display technologies and the development of videogames	2009	6.277050934318135	-9.526200516718212	2914966
2915761	Robotics	computer assisted animation: 2d or not 2d?	1994	6.0490760299195365	-9.475778971108731	2915788
2916088	Graphics	automod tutorial	1996	4.814785679476658	-9.195782310776151	2916115
2916715	Robotics	experiences in using the pepper robotic platform for museum assistance applications	2018	4.562972453983434	-9.543017213698754	2916742
2916888	Robotics	immersive environment technologies for planetary exploration	2001	4.819191176415503	-8.70434640657639	2916915
2917433	Vision	"""pdfa """"brain"""" psa"""	2002	4.577615713359759	-9.162206082809703	2917460
2917894	Graphics	new behavioural approaches for virtual environments	2004	5.627565889930043	-8.771979630700573	2917921
2919591	HCI	crowd distribution and location preference	2012	4.692984714659931	-9.100364162320902	2919618
2919770	Graphics	a visual interface for scripting virtual behaviors	1998	5.416093720568239	-9.605003793691749	2919797
2920655	HCI	interactive design of botanical trees using freehand sketches and example-based editing	2005	5.888951752601576	-9.359491340575016	2920682
2922037	Graphics	gks-3d: a three-dimensional extension to the graphical kernel system	1986	6.254744832018713	-9.23301696446474	2922064
2922993	HCI	animation support in a user interface toolkit: flexible, robust, and reusable abstractions	1993	6.118105639171553	-9.264576774206994	2923020
2923816	Graphics	design and implementation of modern production renderers	2018	6.044808944837196	-8.745188073597252	2923843
2923855	AI	scenario generation for emergency rescue training games	2009	4.833308732930028	-8.150048236100046	2923882
2924006	Graphics	a sketching interface for terrain modeling	2004	5.719886838330793	-9.35178022863101	2924033
2924717	HCI	using wearable computers to construct semantic representations of physical spaces	2002	5.127269166161309	-9.630355656746305	2924744
2925033	Graphics	evolving images for entertainment	2007	6.008995541423526	-8.979975827634204	2925060
2925149	Embedded	computation procedures of the chinese abacus	1974	6.211085022879032	-8.169632998367312	2925176
2925952	AI	stroke-based stylization learning and rendering with inverse reinforcement learning	2015	5.727770822033	-9.335445231576008	2925979
2926182	AI	a framework for supporting multimodal conversational characters in a multi-agent system	2000	5.0063933251671555	-8.432023166730923	2926209
2926789	AI	a hybrid of plot-based and character-based interactive storytelling	2007	5.533334127062124	-8.281643651494427	2926816
2927585	AI	open-ended grounded semantics	2010	4.904227870595664	-7.958372477748508	2927612
2929090	AI	resolving ambiguities to create a natural computer-based sketching environment	2006	6.0533941906405335	-9.405712104277052	2929117
2929386	HCI	the free-play sandbox: a methodology for the evaluation of social robotics and a dataset of social interactions	2017	4.440689634054732	-9.32941887342089	2929413
2929521	HCI	an integrated development framework for tabletop computer games	2014	6.086999298684166	-9.363517635417589	2929548
2929591	Robotics	computational design of foldable robots via composition	2016	4.3830258432008256	-9.279070804272582	2929618
2930886	Robotics	enabling generative behavior within an interactive evolutionary design system using a component-based representation	2007	6.153024364058624	-8.015427205399881	2930913
2931182	Robotics	a survey and comparison of commercial and open-source robotic simulator software	2011	4.375480493777953	-9.26993685501916	2931209
2931344	Vision	novel nature-inspired selection strategies for digital image evolution of artwork	2018	5.327839043878003	-8.356987272249036	2931371
2931393	Networks	road traffic monitoring on a wall display	2015	4.7969699737558695	-8.89011047592883	2931420
2931576	Theory	immersive analytics: time to reconsider the value of 3d for information visualisation	2018	6.228303706957053	-9.456110594749903	2931603
2931849	AI	creative arcs in improvised human-computer embodied performances	2018	6.234907520218504	-9.128119582027686	2931876
2934451	HCI	organizational gameplay: the player as designer of character organizations	2015	5.2074173280080975	-8.008288522904062	2934478
2934909	Mobile	the smart shower	2014	5.579314198619822	-8.96885607606605	2934936
2936734	Graphics	a software tool for generating graphics by means of p systems	2010	5.82562034578213	-8.528324162397697	2936761
2937971	AI	automated design for playability in computer game agents	2014	4.504114816350722	-8.164469962261242	2937998
2939646	AI	a rule-based framework for modular development of in-game interactive dialogue simulation	2011	5.380535747621762	-8.463066249120008	2939673
2940337	Graphics	an artist friendly hair shading system	2010	5.746144795586567	-9.424650490977765	2940364
2940475	Visualization	automatic fly-through camera animations for 3d architectural repositories	2014	6.088682880986202	-9.050890122604804	2940502
2940646	Graphics	hyperchem release 3 for windows	1993	5.449571423492079	-8.773093621716884	2940673
2940662	Visualization	the application research of virtual reality technology in emergency evacuation simulation of sports stadium	2011	4.885099018498134	-9.52098009158874	2940689
2940989	HCI	implementation of a scripting language for vrml/x3d-based embodied agents	2003	5.594286496362321	-9.073919886430575	2941016
2941410	HCI	synthetic space: inhabiting binaries	2012	5.899167832651808	-9.192981618846463	2941437
2943874	HCI	computer-generated cars you have to love: how image morphing and warping help designers to optimize their design sketches	2010	6.241857298913753	-9.476109175975992	2943901
2944265	Graphics	the tangible user interface and its evolution	2008	6.097308163387598	-9.374809044856171	2944292
2944851	Vision	an operational vr platform for building virtual training environments	2007	6.098636316032307	-8.831139589052713	2944878
2945091	Visualization	i'm walking	2004	5.8031606516675005	-9.218221918978275	2945118
2945249	Graphics	how to turn the page	2003	5.854923173218925	-9.474210949925922	2945276
2945294	Mobile	electromagnetic spectrum	2009	4.905711880189368	-9.68002235097541	2945321
2945892	AI	structured reciprocity for musical performance with swarm agents as a generative mechanism	2017	5.188920332535209	-8.097375331391524	2945919
2947113	AI	extended abstract for canvas obscura	2014	5.983066364014228	-8.707976278171675	2947140
2947218	Robotics	luminocity: a 3d printed, illuminated city generated from ladar data	2014	5.9131504580911045	-8.74302649930539	2947245
2947255	Visualization	focus and context taken literally	2002	5.871451354037419	-9.772777861687754	2947282
2947302	Graphics	computer-assisted artistic pattern drawing	2005	5.676643419410765	-9.52391626393704	2947329
2947347	Robotics	an artificial intelligence-based vehicular system simulator	2017	4.451110565223448	-8.460386443425701	2947374
2947523	AI	evolving personas for player decision modeling	2014	4.6607141584712135	-8.188558161767983	2947550
2947803	Robotics	the behavioral test-bed: obtaining complex behavior from simple rules	1988	4.535326775482504	-8.892472602781812	2947830
2948971	Robotics	bring common ground into robotics	2011	4.484118190200374	-9.202695080033255	2948998
2949057	Mobile	mobile augmented reality for environmental management (mare)	2003	6.173771580126532	-9.321248801674527	2949084
2949847	Graphics	assisted environment map probe placement	2011	5.808129896087518	-9.350198358386297	2949874
2949877	Graphics	sony pictures imageworks	2006	5.725943976843317	-9.348874156821976	2949904
2951838	Vision	an indirect fitness scheme for automated evolution of aesthetic images	2014	5.284604941372669	-8.265687242918991	2951865
2951913	HCI	heritage recording and 3d modeling with photogrammetry and 3d scanning	2011	6.242428520249447	-7.943106536499079	2951940
2952295	AI	the wheatstone stereoscopic random line pair generator with fitness function for non-objective art	2011	5.683358826975423	-9.455786414889335	2952322
2952922	HPC	caveudk: a vr game engine middleware	2012	6.273390539585736	-9.524433082604764	2952949
2953257	Graphics	reusable skinning templates using cage-based deformations	2008	5.2808723013249175	-9.757879994781609	2953284
2953519	HCI	sketching cartoons by example	2005	5.737159325042441	-9.439970609539039	2953546
2953601	Graphics	the architecture of the picture system	1974	5.964204520953054	-8.882053102004459	2953628
2953604	HCI	gem-ni: a system for creating and managing alternatives in generative design	2015	5.66989528030807	-8.113834867206599	2953631
2954268	HCI	evolutionary virtual agent at an exhibition	2007	5.000257280841597	-8.833953578969377	2954295
2954711	AI	explainable autonomy: a study of explanation styles for building clear mental models	2018	4.5446116846353695	-8.382698562200883	2954738
2955611	Visualization	evevis: a multi-scale visualization system for dense evolutionary data	2011	5.175987069473873	-7.891149881815305	2955638
2955787	AI	modeling emotions for choosing between deliberation and action	2009	4.389879890438587	-8.250754158614455	2955814
2957418	AI	the hair motion compositor: compositing dynamic hair animations in a production environment	2009	5.669528197092142	-9.381567977147895	2957445
2957748	HCI	an integrated environment to visually construct 3d animations	1995	6.0093999040473856	-9.4179844387669	2957775
2958363	Graphics	interactive script based dynamics in big hero 6	2015	5.634585421826186	-9.379357301435984	2958390
2958948	Visualization	vrcemig: a novel approach to power substation control	2016	4.431633425288953	-9.733178063444948	2958975
2958965	Robotics	natural language driven image generation	1984	6.144638137666125	-8.506633309505672	2958992
2959065	Graphics	animating autonomous pedestrians	2005	4.6311140919810905	-9.358274988870242	2959092
2960646	Logic	accuracy verification of manual 3d cg reconstruction: case study of destroyed architectural heritage, bam citadel	2010	6.068569805371651	-8.650804803247404	2960673
2961686	Graphics	a stochastic approach to simulate artists behaviour for automatic felt-tipped stippling	2010	5.7269315661785996	-9.06522076254174	2961713
2961840	HCI	examining interaction with general-purpose object recognition in lego oasis	2011	5.718822231205256	-9.80006688450894	2961867
2962280	AI	hierarchical structuring of layout problems in an interactive evolutionary layout system	2012	6.190229881177197	-8.13613657015378	2962307
2962527	Visualization	enhancing behavioral fidelity within distributed virtual environments	1997	4.382320646026272	-8.211147073419943	2962554
2962899	AI	on symmetry, aesthetics and quantifying symmetrical complexity	2017	5.434836433808137	-8.331274631466702	2962926
2965148	AI	using multimodal technologies to enhance aviation maintenance inspection training	2007	4.623645552455186	-9.703873773485435	2965175
2965632	AI	supporting real-time decision-making under stress in an online training environment	2017	4.71419089797787	-8.356769783005257	2965659
2966233	HCI	towards road traffic management with forecasting on wall displays	2016	4.870023332949834	-8.947587314960344	2966260
2967801	Visualization	procedural generation and interactive web visualization of natural environments	2015	6.047403357414272	-8.282159263594627	2967828
2967975	Graphics	motion inpainting and extrapolation for special effect production	2009	5.664867045421853	-9.468206581748916	2968002
2970055	AI	annotator: an ai approach to engineering drawing annotation	1988	5.954449239219332	-8.325479614940507	2970082
2970936	DB	high performance virtual reality distributed electronic commerce: application for the furniture and ceramics industries	2002	5.56258973783154	-9.571994307876198	2970963
2971356	HCI	3d holoscopic imaging for cultural heritage digitalisation	2018	6.28452809767829	-8.432423606347452	2971383
2971440	Graphics	pmpd : physical modelling for pure data	2004	6.206992744477875	-9.638889018771453	2971467
2972600	Graphics	a gpu tile-load-map architecture for terrain rendering: theory and applications	2008	6.090621371815857	-8.602073269622025	2972627
2972752	EDA	modeling and simulation of product's surface design	2004	5.723295069222036	-8.668453008554339	2972779
2973006	HCI	dynamo - dynamic 3d models for the web: a declarative approach to dynamic and interactive 3d models on the web using x3dom	2018	6.144476198645521	-9.239838880916217	2973033
2973377	AI	a trust-based decision-making approach applied to agents in collaborative environments	2016	4.565423471334191	-8.257714630491119	2973404
2973463	Visualization	dive into alcohol: a biochemical immersive experience	2009	5.325848063901279	-8.945005763008256	2973490
2973674	Robotics	coordinate multi-robotic system for image taking and visualization via photogrammetry	2017	4.76490954949422	-9.55727031737182	2973701
2975757	Networks	gal: towards large simulations with tens of agents	2005	5.026071172566827	-8.818200967388377	2975784
2976350	HCI	using augmented reality and interactive simulations to realize hybrid prototypes	2008	5.043525635560722	-9.135453720996706	2976377
2976586	Visualization	using haptics to convey cause-and-effect relations in climate visualization	2008	6.068010700625012	-9.3523241623065	2976613
2977692	Vision	alhazen and the nearest neighbor rule	2014	5.855779579717217	-7.910092055457188	2977719
2978092	HCI	histomages: fully synchronized views for image editing	2012	5.407013141579192	-9.774146737413849	2978119
2978902	Graphics	application of advanced rendering and animation techniques for 3d games to softbody modeling and animation	2009	6.056301136159174	-8.879628530969043	2978929
2979054	HCI	virtual reality mapping system for chernobyl accident site assessment	1999	4.573123005244277	-8.738649308604169	2979081
2979155	AI	evaluating the aesthetics of endgame studies: a computational model of human aesthetic perception	2012	5.166101592332997	-8.56860801378546	2979182
2979182	Robotics	3d architecture facade optimization based on genetic algorithm and neural network	2017	5.443388142102075	-8.507125378419996	2979209
2980493	AI	the mario ai benchmark and competitions	2012	4.402716321507944	-7.978444678300081	2980520
2981132	Graphics	sable: a painterly renderer for film animation	2003	5.8667352234880985	-9.225895894408788	2981159
2981576	HCI	dynamic visualization of the relative position of straight lines on the plane using mathematica	2016	6.2791432986472	-8.659049355094362	2981603
2981827	Graphics	perception-aware modeling and fabrication of digital drawing tools	2018	5.634745074301282	-9.801794830880377	2981854
2983547	DB	the research on the interface between unreal engine 3's particle system and external program	2013	4.3806233351044765	-9.361633060837503	2983574
2983900	Vision	visualizing agent-based simulation dynamics in a cave — issues and architectures	2011	5.187616248992549	-8.274123801795454	2983927
2984144	Graphics	open shading language	2010	6.161453279115909	-9.071552764693502	2984171
2984279	Graphics	real-time exploration of the virtual reconstruction of the entrance of the ripoll monastery	2008	5.280496469849716	-8.653894784844555	2984306
2985212	Vision	intelligent agents as synthetic role players in scenario-based training	2008	4.401533063294656	-8.167255457353704	2985239
2985530	Visualization	mission visualization for planning and training	1995	4.436152515938037	-9.469587110566664	2985557
2985715	Graphics	high fidelity reconstruction of the ancient egyptian temple of kalabsha	2004	6.183502466639987	-8.248528765400224	2985742
2985819	Vision	real-time all-frequency relighting in local frame	2006	5.689038458889433	-9.259558872041717	2985846
2986089	AI	a new design for a turing test for bots	2010	4.49530830364371	-7.9047123463205216	2986116
2986655	Visualization	haptic, audio, and visual: multimodal distribution for interactive games	2012	6.180177647512784	-9.515733817162358	2986682
2987774	HCI	draco: bringing life to illustrations	2014	5.710189979281106	-9.38406685246524	2987801
2987800	Graphics	markerless face capture and automatic model construction	2006	5.7446497588352194	-9.403273383351962	2987827
2987989	Robotics	do-it-yourself design for social robots: an open-source hardware platform to encourage innovation	2017	4.398430868375718	-9.466909516894024	2988016
2988267	HCI	multi-segment evolution of dungeon game levels	2017	5.327337808557632	-8.326225106287042	2988294
2988844	Robotics	profile of a winner: georgia tech	1998	4.495500520047846	-9.805820612139556	2988871
2989725	Graphics	stereoscopic display technique for web3d images	2009	5.98772150743166	-9.55894372497484	2989752
2991320	AI	improving crowd behaviour for games and virtual worlds	2010	4.462651689278097	-8.73143462261175	2991347
2991647	ML	skills-in-a-box: towards abstract models of motor skills	2010	4.474806814900171	-9.370532967197576	2991674
2991943	HPC	the photon4d distributed engine: a distribution layer for high quality rendering in shared virtual immersion	1998	6.190150898437276	-9.327497697869493	2991970
2992435	Robotics	two brains guided interactive evolution	2015	5.0544358889439716	-8.478858254213192	2992462
2992724	Visualization	lava lamps in the 21st century	1993	5.770779346126318	-8.924605907093026	2992751
2992911	Visualization	mixing virtual and real scenes in the site of ancient pompeii	2005	5.938226065454807	-8.841687224013615	2992938
2993699	Graphics	a neurobehavioural framework for autonomous animation of virtual human faces	2014	4.786926363297815	-9.457038808884183	2993726
2994352	NLP	an approach to entertainment tuning in rpgs: case study using diablo iii and trails of cold steel	2016	4.6990505399928795	-8.030480586497928	2994379
2994603	Theory	ornament as data structure: an algorithmic model based on micro-rhythms of csángó laments and funeral music	2003	6.300433517441888	-9.081657918568641	2994630
2995277	Graphics	generating and rendering expressive caricatures	2010	5.462322510475671	-9.68434485394655	2995304
2995447	EDA	a computer _aided harmonious architecture design method based on fractals	2008	5.785057886034798	-8.20584574796353	2995474
2997070	Arch	teaching a modern graphics pipeline using a shader-based software renderer	2012	6.031199241336999	-8.584994001424706	2997097
2997619	Visualization	inspiration from vr gaming technology: deep immersion and realistic interaction for scientific visualization	2017	6.2716991649816105	-9.014053588748473	2997646
2997662	AI	towards a 'smart' collaborative virtual environment and multi-agent approach to designing an intelligent virtual agent	2014	4.862793586549017	-8.576984443186298	2997689
2998962	HCI	dream lens: exploration and visualization of large-scale generative design datasets	2018	6.261136884528702	-9.052122500981053	2998989
2999232	Graphics	line illustrations ∈ computer graphics	1995	6.041725058401991	-8.641033669272803	2999259
2999857	Arch	chaos and fractal for creative computing	2014	5.897919864645688	-7.993779530104313	2999884
3000093	HCI	flying frustum: a spatial interface for enhancing human-uav awareness	2015	6.1191642527735	-9.330614165500243	3000120
3000407	Visualization	pde-based graph signal processing for 3-d color point clouds : opportunities for cultural herihe arts and found promising	2015	6.226964827678918	-8.147868013125906	3000434
3000453	EDA	the role of haptic devices for an efficient integration of design, simulation and analysis	1998	5.612940771489956	-9.565733685676696	3000480
3000980	AI	using ai to design stone jewelry	2018	5.641724742733718	-8.976287141049133	3001007
3001901	Graphics	illustration based sculpture modeling system by point set surface	2009	5.797930015546092	-8.927177610672599	3001928
3003092	Logic	toward user-directed evolution of sound synthesis parameters	2005	5.368210466542525	-8.585944844801636	3003119
3003211	HCI	how a cockpit forgets speeds (and speed-related events): toward a kinetic description of joint cognitive systems	2014	4.449916787933537	-9.016319058002658	3003238
3003686	Robotics	confidence-driven early object elimination in quality-aware sensor workflows	2005	4.794640210998823	-9.461048590678995	3003713
3004185	AI	a data-driven passing interaction model for embodied basketball agents	2015	4.924506511002725	-8.295156538543974	3004212
3004581	Graphics	el desván	2004	5.824711372734067	-9.176973438814043	3004608
3004843	Graphics	interactive scene manipulation in the virtue3d system	2002	6.055935038750117	-9.324750258059014	3004870
3005423	AI	game ai research with fast planet wars variants	2018	5.115878418143052	-8.450594634905936	3005450
3005786	Visualization	monitoring interior wall maintenance in a virtual environment	2012	5.375184586893361	-9.320852747243382	3005813
3005879	Graphics	teddy: a sketching interface for 3d freeform design	2006	5.322347776149782	-9.76564557529207	3005906
3005923	AI	a plot understanding system on reference to both image and language	1981	6.287564971083612	-9.060440830705778	3005950
3006233	AI	promoting social collaboration between children with a social robot	2015	4.873652328521071	-9.164380721609897	3006260
3006837	HCI	draco: sketching animated drawings with kinetic textures	2014	6.176843211003144	-9.46179054920776	3006864
3008433	HPC	"""metering """"black holes"""": networking stand-alone applications for distributed multimodal synchronization"""	2016	6.304672825515157	-9.508251217698788	3008460
3008449	AI	using environmental annotations and affordances to model culture	2006	5.269620902365372	-8.278501547857344	3008476
3010031	Vision	a visual interactive environment for image retrieval by subjective parameters	1999	5.06727456819391	-7.984842672439253	3010058
3010341	Robotics	intelligent emotion decision system for autonomous agents	2008	4.9337599997474255	-8.067885786962803	3010368
3010687	HCI	interactive mr game based on intelligent agent	2008	5.6394523494365405	-9.535019847189373	3010714
3010896	DB	genomememusic: a memetic-based framework for discovering the musical genome	2014	5.513168397781047	-8.229839638273738	3010923
3010919	HPC	interactive generation of (paleontological) scientific illustrations from 3d-models	2012	5.960687855342228	-8.909861285855467	3010946
3011086	AI	computational cognitive modelling of action awareness: prior and retrospective	2015	4.578504441780581	-8.355564828449168	3011113
3012185	HCI	generative choreography: animating in real-time dancing avatars	2012	6.016039847730966	-9.263835373187176	3012212
3012231	HCI	close-range photogrammetric tools for epigraphic surveys	2016	6.247384063799575	-8.044657083084115	3012258
3012407	Graphics	3d reconstruction of saltanat gate in dolmabahce palace	2014	6.1738113379103785	-8.61905163027714	3012434
3012578	HCI	support based measures applied to ice hockey scoring summaries	2000	4.820003584346368	-8.344271844915003	3012605
3012997	Robotics	research of interactive visual simulation method based on cooperative vehicle infrastructure system	2014	5.3448789665362355	-8.664113198715603	3013024
3013129	AI	flexible strategy use in young children's tic-tac-toe	1993	4.83169008579375	-7.967888411180023	3013156
3013586	HPC	an efficient system for collaboration in tele-immersive environments	2002	6.307375619227673	-8.970064670302087	3013613
3014268	Robotics	cognitive and synthetic behavior of avatars in intelligent virtual environments	2008	4.374550295313025	-9.190918790097687	3014295
3014744	AI	color changing and fading simulation for frescoes based on empirical knowledge from artists	2006	6.252529239948668	-8.214782491419161	3014771
3014963	HCI	interactive vectorization	2017	5.9592499687482	-9.117479333574533	3014990
3014966	Visualization	real-time volume graphics	2004	5.890088912579207	-8.812503841785489	3014993
3016136	AI	ai painting: an aesthetic painting generation system	2018	5.729414195387764	-9.342538849128788	3016163
3016196	Robotics	poppy: open-source, 3d printed and fully-modular robotic platform for science, art and education. (poppy: plate-forme robotique open source, imprimée en 3d et totalement modulaire pour l'experimentation scientifique, artistique et pédagogique)	2014	4.439960878851887	-9.499264740181022	3016223
3016249	Graphics	interactive sketching of urban procedural models	2016	5.993464229086494	-8.922605071899886	3016276
3016484	Graphics	web-based, 3d-assisted editing of production dailies	2013	5.913777175531727	-8.872071923736062	3016511
3017339	AI	community evacuation planning for bushfires using agent-based simulation: demonstration	2015	5.079430175123215	-8.57745728468542	3017366
3017412	Graphics	three-dimensional structural analysis using interactive graphics	1977	6.065719469093094	-8.525789212103357	3017439
3018245	HCI	exploring instationary fluid flows by interactive volume movies	1999	6.137597154196232	-8.658621034247128	3018272
3019058	Robotics	towards creative humanoid conceptualization learning from metaphor-guided pretense play	2013	5.379518018230557	-8.220449749091086	3019085
3019078	Robotics	fuzzy emotional presentation system to enjoy watching baseball games	2017	4.987422422143631	-8.587125089513457	3019105
3019567	Graphics	high quality previewing of shading and lighting for killzone3	2011	5.795187602605663	-9.449825323691961	3019594
3020679	Vision	3d human face identity transfer using deformation gradient	2010	5.27259567839626	-9.742697658778397	3020706
3022411	Graphics	a new computational methodology for the construction of forensic, facial composites	2009	4.517840810665268	-9.187966471606515	3022438
3022457	Visualization	virtual reality for assembly methods prototyping: a review	2009	4.913136700236769	-9.256977190609094	3022484
3023327	PL	a phong-based concept for 3d-audio generation	2011	6.147150372687429	-9.357508355543764	3023354
3023642	Graphics	illustrating how mechanical assemblies work	2013	4.580804458720618	-9.426871507550349	3023669
3024908	HCI	the changing role of subjects connected with book history and publishing in the education of library specialists in estonia	2001	6.300112792941282	-8.202632873272279	3024935
3025142	Robotics	exploring sketching for robot collaboration	2011	5.647185435383391	-9.748130711395527	3025169
3026502	HCI	h-animator: a visual tool for modeling, reuse and sharing of x3d humanoid animations	2006	6.285666188718653	-9.719588152310694	3026529
3027272	AI	inverse direct lighting with a monte carlo method and declarative modelling	2002	5.853083954078223	-8.607968538585093	3027299
3027432	AI	generating map sketches for strategy games	2013	5.621100274890393	-8.273639944377944	3027459
3027823	HCI	digital sculpting for historical representation: neville tomb case study	2017	6.128856465888593	-8.538759711637688	3027850
3027856	Graphics	micro analysis & design: micro saint sharp	2005	6.143810451894454	-8.926921029963554	3027883
3028361	Visualization	tour into virtual environment in the style of pencil drawing	2008	5.716961159350211	-9.569877805970624	3028388
3029508	Visualization	coupling of interactive manufacturing operations simulation and immersive virtual reality	2010	5.8746919673485705	-9.547375137943368	3029535
3029934	HCI	simulating and animating social dynamics: embedding small pedestrian groups in crowds	2013	5.178515444682657	-8.510211303503004	3029961
3030363	Visualization	application of stochastic point-based rendering to transparent visualization of large-scale laser-scanned data of 3d cultural assets	2014	5.973906711567817	-8.940466397339987	3030390
3031200	Graphics	a framework of intentional characters for simulation of social behavior	2010	4.793587052804645	-8.302056502169021	3031227
3031389	Visualization	3d printing: basic concepts mathematics and technologies	2013	5.678155216467384	-8.705787715419612	3031416
3031697	AI	an extensible description language for video games	2014	5.084319409901856	-9.012283239068537	3031724
3031909	SE	a guided interaction approach for architectural design in a table-type vr environment	2002	6.060371898720093	-9.579921716208622	3031936
3032871	Visualization	depth director: a system for adding depth to movies	2011	5.888450442717584	-9.57193959812811	3032898
3033051	HCI	can 3dtv create immersive environments	2012	5.956248025621734	-9.059066445101065	3033078
3033460	Graphics	a virtual environment for archiving micro-presence with image-based model acquisition	2007	5.846725521968893	-9.140601918039998	3033487
3033527	Graphics	"""generating realistic human hair for """"the matrix reloaded"""""""	2003	5.7655993911430725	-9.30685887468347	3033554
3034412	Arch	the building as the interface: architectural design for education in virtual worlds	2013	6.099095725064341	-9.094240216342557	3034439
3034973	Graphics	silf: a sketching tool for cartoon-like pseudo-3d illustrations based on 3d outlines	2004	5.347021764764467	-9.531054127461042	3035000
3035118	Graphics	an image processing approach to computer graphics	1974	6.121097713646457	-9.169275230163183	3035145
3035399	Visualization	crowd-sourced procedural animation optimisation: comparing desktop and vr behaviour	2017	5.383927061250877	-9.045226446658807	3035426
3035721	Graphics	autocomplete painting repetitions	2014	5.776494769325879	-9.512434927134438	3035748
3035921	AI	incoa: human-machine-human collaboration in sketch-based mission planning	2009	5.504179785024403	-7.9865856296253455	3035948
3036108	Visualization	time management, simultaneity and time-critical computation in interactive unsteady visualization environments	1996	5.88303612241249	-8.949295927267492	3036135
3037027	HCI	the fundamental principle of coactive design: interdependence must shape autonomy	2010	4.54213252254579	-8.227534709551037	3037054
3038136	HCI	research on constructing 3-d pipeline connection model by using opengl	2008	5.985229436357133	-8.428891797469497	3038163
3038419	NLP	visual language framework for plant modeling using l-system	2009	6.186387824933737	-8.64722988407391	3038446
3039281	Vision	learning query-dependent prefilters for scalable image retrieval	2009	4.389241035923724	-8.738063008278116	3039308
3039336	AI	computational complexity versus virtual worlds	1990	5.317947210047104	-9.092174626351943	3039363
3039394	Visualization	geda-3d agent architecture	2005	4.920900897993789	-8.764730256950314	3039421
3039702	Visualization	pearls found on the way to the ideal interface for scanned probe microscopes	1997	5.833813255193469	-8.360587327341781	3039729
3039827	AI	selecting the best taste: a group decision-making application to chocolates design	2013	5.522741236366844	-7.898635132284924	3039854
3043451	AI	enhancing character posing by a sketch-based interaction	2016	5.880890549575554	-9.01351686635457	3043478
3043941	HCI	automated assistants to aid humans in understanding team behaviors	1999	4.487109133111449	-8.096519729366923	3043968
3044112	HCI	designing with deformation: sketching material and aggregate behaviour of actively deforming structures	2011	5.718932930567803	-9.16393129408162	3044139
3044955	Graphics	viena: a multiagent interface to a virtual environment.	1995	5.658984836292013	-9.347290919635538	3044982
3044973	Robotics	data driven solid freeform fabrication	1992	5.519119163696733	-8.601727376840236	3045000
3045120	Robotics	shape-it-up: hand gesture based creative expression of 3d shapes using intelligent generalized cylinders	2013	5.306300717543139	-9.738602772416185	3045147
3045478	NLP	studying distributed collaborations using the resource allocation negotiation task (rant)	2013	4.665364816094297	-8.245307126408855	3045505
3045863	HCI	automated game balancing in ms pacman and starcraft using evolutionary algorithms	2017	4.50446550727056	-8.049359619680184	3045890
3047524	Graphics	computer graphics and virtual environments: from realism to real - time	2001	6.124823600622215	-8.856254215829454	3047551
3047929	Graphics	output technologies for digital photography	1997	5.768522127282476	-9.193502033749251	3047956
3048514	EDA	intelligent approaches for generating assembly drawings from 3-d computer models of mechanical products	2002	5.5533214003739735	-8.797862655346758	3048541
3048530	Vision	a study into autonomous scanning for 3d model construction	2017	5.839392493087021	-9.786750548572105	3048557
3049015	HCI	controlling three agents in a quarrel: lessons learnt	2012	4.779207265833056	-8.896452289135366	3049042
3049666	Vision	evolving stylized images using a user-interactive genetic algorithm	2009	5.8290831128118334	-8.741888225748607	3049693
3050148	AI	a semantic generation framework for enabling adaptive game worlds	2011	4.739460104366278	-8.294579360241098	3050175
3050344	Vision	ue4sim: a photo-realistic simulator for computer vision applications	2017	5.44474786192809	-8.547226560821985	3050371
3050376	HCI	sma motion display: plant	2010	5.987837004147256	-9.642026765314275	3050403
3050809	Graphics	artificial evolution of implicit surfaces	1998	5.3706290463801345	-8.439978864632964	3050836
3052246	Robotics	the art of fractal landscapes	1991	5.790752788546755	-8.042527193563389	3052273
3052268	EDA	a genetic algorithm based approach to the synthesis of three dimensional morphing sequences	2001	5.41177358334347	-8.668035438447689	3052295
3052526	HCI	multi-scale 3d modelling of damaged cultural sites: use cases and image-based workflows	2016	6.296921312252692	-8.043936422273001	3052553
3052763	Visualization	wide field of view (wfov) imaging for consumer devices	2014	5.217563049050545	-9.380468686121928	3052790
3053353	HCI	wave displacement effects for surf's up	2007	5.584885240939821	-9.670337205955756	3053380
3053450	AI	a knowledge-based computer environment for the conceptual design of small electromechanical appliances	1993	4.660034223554698	-9.618174907693474	3053477
3053743	Graphics	skeleton-based cartoon hair modeling using blobby model	2013	5.284060618045047	-9.546396664877973	3053770
3054464	ML	an architecture for machine learning with multiple reinforcers (abstract and figures only)	1991	4.6324278479091205	-8.536747828884085	3054491
3054918	Vision	discovering states and transformations in image collections	2015	6.099213338129152	-8.55862932433415	3054945
3055207	Visualization	modeling of bodies and clothes for virtual environments	2004	5.549367703283363	-9.45738612933308	3055234
3056707	EDA	an aesthetic curve in the field of industrial design	1999	6.304114514056738	-8.521257292592361	3056734
3057415	Visualization	intelligent storyboard for prototyping animation	2001	6.10236155884695	-9.413743478196446	3057442
3057436	Visualization	sewing worlds together with seams: a mechanism to construct complex virtual environments	1999	6.041144364182171	-9.385720547074039	3057463
3058490	AI	evolving playable content for cut the rope through a simulation-based approach	2013	4.398579572953773	-8.106309717765221	3058517
3058539	Graphics	chop it up!: animation-driven modeling, simulation, and shading in the kitchen	2007	5.600648994403853	-9.453057509265363	3058566
3058651	Graphics	grooming furry surfaces of arbitrary topology	2003	5.821931537554816	-9.137356625969533	3058678
3058752	Robotics	out of context augmented navfields: designing crowd choreographies	2012	4.419778080427488	-8.941490230316859	3058779
3058915	Graphics	crowdbrush: interactive authoring of real-time crowd scenes	2004	5.460412443644412	-9.527001178654103	3058942
3058930	Vision	image based 3d reconstruction in cultural heritage preservation	2013	6.102015468377696	-7.932397171816458	3058957
3058948	HCI	imake: eye makeup design generator	2014	5.809712269672168	-9.722283996763236	3058975
3060465	AI	modeling self-adapting and multicultural non-player characters in artificial worlds	2006	4.708487277465544	-8.016277125327612	3060492
3062087	Robotics	supporting creative thinking in design with computational approach	2005	5.725839185640696	-8.745514310110938	3062114
3062670	AI	a role casting method based on emotions in a story generation system	2007	4.9809035458009765	-8.565786195413477	3062697
3063115	NLP	example-based blendshape sculpting with expression individuality	2014	5.574128834600695	-9.32289673390756	3063142
3063518	HCI	folding cartons: interactive manipulation of cartons from 2d layouts	2018	5.3102214186822305	-9.663943184129929	3063545
3064274	ML	global expectation-violation as fitness function in evolutionary composition	2009	5.406438140111308	-8.536105336731962	3064301
3065131	HCI	analyzing the believability of game character behavior using the game agent matrix	2013	5.032624361679177	-8.477446766142588	3065158
3065186	NLP	3d reconstruction of paper based assembly drawings: state of the art and approach	2001	5.964575988192215	-8.396801581623867	3065213
3065569	Graphics	emulating an offline renderer by 3d graphics hardware.	2004	6.143931627144622	-9.275624092997576	3065596
3066129	HPC	computing a heuristic solution to the watchman route problem by means of photon mapping within a 3d virtual environment testbed.	2014	5.838970616466949	-8.107424594023312	3066156
3066994	Visualization	state-of-the-art rendering techniques in real-time architectural visualization	2007	5.816955309451947	-9.042849310107435	3067021
3068043	HCI	hud - ar: enhancing communication between drivers by affordable technology	2017	4.625039517294196	-9.737673452688936	3068070
3068381	HCI	sigchi sprayce: a space spray input for fast shape drawing	2012	5.774378107238164	-9.388909128940961	3068408
3069823	Graphics	interactive visualisation of algebraic surfaces as a tool for shape creation	2011	6.141931843676237	-8.536894313162005	3069850
3070256	Web+IR	the map and the flock: emergence in mapping with swarm algorithms	2014	5.44901933357225	-8.026320922266798	3070283
3071035	Visualization	a framework for the automatic 3d city modeling using the panoramic image from mobile mapping system and digital maps	2014	6.305462204688847	-7.931339586292357	3071062
3072909	Graphics	enhancing the audience experience during sport events: real-time processing of multiple stereoscopic cameras	2013	5.472856458555038	-9.677082290555337	3072936
3073600	AI	usertesting without the user: opportunities and challenges of an ai-driven approach in games user research	2018	4.673974802372302	-8.475335837002161	3073627
3074229	Graphics	parametric description of a scan-display system	1969	6.218460840505228	-8.427182126340718	3074256
3074943	HCI	a gesture analysis and modeling tool for interactive embodied agents	2009	6.096632272081672	-9.528746864251564	3074970
3075620	AI	the devil is in the detail	2011	6.2559471664331685	-8.148309436867994	3075647
3077038	SE	a computational model of habit learning to enable ambient support for lifestyle change	2011	5.239015072291977	-7.891452918169152	3077065
3077449	Visualization	"""previsualizing the interior: stylistic representations of virtual """"space"""" for multiple end-users"""	2003	6.2161877748853085	-8.591335724012424	3077476
3078215	Graphics	development of stereoscopic image editing tool using image-based modeling	2006	5.494355948149481	-9.246678839548064	3078242
3078296	ML	adapting reinforcement learning for computer games: using group utility functions	2005	4.441004822768776	-8.060992627217951	3078323
3078784	Vision	multi-view 4d reconstruction of human action for entertainment applications	2011	4.8435606456557245	-9.77069717710937	3078811
3078864	AI	toward affective cognitive robots for human-robot interaction	2005	4.506184256541909	-8.999356265889768	3078891
3078927	AI	grounding language in spatial routines	2007	4.430016082696792	-8.62135435693601	3078954
3079158	PL	a study of changes in production by domestic broadcasters using virtual studio	2011	5.702552660392067	-9.617522954334106	3079185
3079925	OS	rendering massive virtual worlds	2013	6.241798014615087	-8.702420693922278	3079952
3080094	Graphics	proceduralization of urban models	2017	6.071947266545767	-8.724702963613531	3080121
3080391	Visualization	adapting a large scale networked virtual environment for display on a pda	2005	5.747270724157428	-9.673096125439018	3080418
3081311	AI	towards an architecture for cognitive vision using qualitative spatio-temporal representations and abduction	2003	4.533627067675764	-9.14357604084869	3081338
3081338	Graphics	image based fluids	2004	5.154927289369682	-9.668342862655637	3081365
3081383	HCI	semantic crowds: reusable population for virtual worlds	2012	4.793491081528216	-8.8360923932946	3081410
3081541	SE	hierarchical petri nets for story plots featuring virtual humans	2008	5.699780477500429	-8.0315079334461	3081568
3082776	Graphics	fireworks: evolutionary art project based on evospace-interactive	2013	6.072928541513446	-8.395015438507548	3082803
3083001	ML	chaos and music: from time series analysis to evolutionary composition	2013	5.324935997050655	-8.179588940482969	3083028
3083264	Web+IR	investigating aesthetic measures for unsupervised evolutionary art	2014	5.397543595839335	-8.329751336340305	3083291
3083679	Robotics	collaborative task assignment of interconnected, affective robots towards autonomous healthcare assistant	2019	5.140626275053776	-7.940887872038039	3083706
3083825	AI	"""review of """"synthetic creatures with learning and reactive behaviors by alex j. champandard"""", new riders publishing, 2004, 768 pp"""	2005	4.611263416077541	-8.34117326180873	3083852
3084180	Robotics	towards an evolution model of expressive music performance	2006	5.374194612289308	-8.574575242366937	3084207
3084284	Graphics	an interactive graphics rendering optimizer based on immune algorithm	2007	5.600688077510292	-8.571563840146307	3084311
3084859	SE	breeding terrains with genetic terrain programming: the evolution of terrain generators	2009	5.152098694994507	-8.442794888934637	3084886
3084907	AI	towards a video game description language	2013	4.5885557044214265	-8.087691728888622	3084934
3084944	Embedded	design of simulation platform of heavy cargo airdrop system	2011	5.174069715543176	-8.893544049082056	3084971
3085112	DB	guest editor's introduction: special issue on distributed virtual environments	1998	6.212145481234477	-9.69863184547224	3085139
3085442	NLP	computer art from the mandelbrot set	1996	5.792383940557437	-8.082269642273168	3085469
3085792	Theory	controlling color regions of leaves with painting techniques for landscape arts	2009	5.55311446294079	-9.394379965073774	3085819
3088178	Logic	rule-based camerawork controller for automatic comic generation from game log	2010	4.979297775930541	-9.379086606749423	3088205
3088264	Robotics	interactive local color transfer based on coupled map lattices	2009	6.096830816128378	-8.070738945580066	3088291
3088359	EDA	velos: a vr platform for ship-evacuation analysis	2010	6.238708699705249	-8.639199003141822	3088386
3088487	Graphics	3-sweep: extracting editable objects from a single photo	2013	5.551668863834911	-9.433463606929907	3088514
3088977	Visualization	the virtual reality modeling language explained	1998	6.1673779087151726	-9.58042765430731	3089004
3089158	Robotics	evolving robot strategy for open ended game	1993	4.478032475502609	-8.001989267779283	3089185
3089771	ML	2003.4a and 2003.4b	2004	5.745462759897706	-8.32475556654451	3089798
3089899	Robotics	office layout support system using island model genetic algorithm	2005	5.258928080804208	-9.742849748431755	3089926
3091206	Graphics	computer animation in interior and industrial design	1985	5.750835478514719	-9.22411838423251	3091233
3091655	OS	pixar's photorealistic renderman version 13	2006	6.19161684938331	-8.899250067168532	3091682
3091834	Robotics	phish nets: planning heuristically in situated hybrid networks	1997	4.909307658993028	-8.154727373252658	3091861
3091970	Graphics	concrete programming paradigm for kinetic typography	1997	6.301724064357876	-8.965291591765544	3091997
3092039	HCI	storm: a generic interaction and behavioral model for 3d objects and humanoids in a virtual environment	2007	4.652296975179962	-9.599389522827561	3092066
3093624	Robotics	study on 3d solid reconstruction from 2d views based on intelligent uunderstanding of mechanical engineering drawings	2006	4.8098868410998525	-9.175863215039088	3093651
3093822	Visualization	relief mapping on facade of sino portuguese architecture in virtual reality	2014	5.885630515025857	-9.639743344886671	3093849
3094394	Robotics	shared manipulation of 3d objects for collaborative mobile maintenance	2009	5.615315890404227	-9.803952544565727	3094421
3095253	Robotics	integrating aesthetic criteria with evolutionary processes in complex, free-form design &#8211; an initial investigation	2006	5.870994082154057	-8.506870548603235	3095280
3095463	AI	boosting interactive evolution using human computation markets	2013	5.388507754544591	-8.277845015847385	3095490
3096379	HCI	developing hierarchical schemas and building schema chains through practice play behavior	2018	4.450235927058474	-8.095579987250197	3096406
3098127	HCI	automatic creation of bas-relieves from single images	2013	5.904119021867454	-9.603822975348075	3098154
3098844	AI	towards explainable npcs: a relational exploration learning agent	2018	4.627342047338835	-8.098316163530034	3098871
3099501	HCI	efficient and precise solid modelling using a 3d input device	1997	6.11254244359077	-9.565966670594664	3099528
3100008	SE	a small-scale and flexible platform for multi-projector systems development	2013	5.911243789775012	-9.363745408190363	3100035
3100103	Graphics	supporting interactive animation using multi-way constraints	1995	6.053221821689763	-9.242194429452294	3100130
3100394	AI	evaluating plans and human response using a normative multi-agent system	2016	4.93689629129672	-8.21005964944961	3100421
3100480	Robotics	particle swarm optimization for reconstruction of penumbral images	2009	5.866214792901976	-9.369821766006817	3100507
3101369	AI	multi-agent approach to localization problems: the case of multilayered multi-agent situated system	2004	4.485745321442627	-8.828486351926555	3101396
3101371	AI	global distributed evolution of l-systems fractals	2004	5.1662323222551265	-7.993739542317175	3101398
3101384	Graphics	ruby: the doublecross	2004	5.752089041209986	-9.18823395623556	3101411
3101783	Graphics	perceptually-motivated graphics	2008	5.552373203440197	-9.320105908761864	3101810
3102627	Visualization	visualization optimization : application to the robocup rescue domain	2008	5.0404224032812115	-8.868340896314152	3102654
3102966	Vision	oceanic oil spill simulations provide memorable disaster preparedness training	2016	5.631270484119066	-9.355494013815706	3102993
3103647	Graphics	universal capture through stereographic multi-perspective recording and scene reconstruction	2009	5.615365376563939	-9.784675396289346	3103674
3104679	HCI	graphic narrative with interactive stylization design	2017	6.007542684670256	-9.451882456527413	3104706
3107241	AI	"""""""should i teach or should i learn?"""" - group learning based on the influence of mood"""	2011	4.797258549063637	-8.282813645916555	3107268
3107418	HCI	predictive physics simulation in game mechanics	2017	5.189791949876324	-9.454539101315461	3107445
3108250	Robotics	model-based development of robotic systems and services in construction robotics	2016	5.076127275050369	-8.931087265639816	3108277
3108606	AI	gamebots: a flexible test bed for multiagent team research	2002	4.430874084719783	-8.348723903749576	3108633
3109999	Robotics	vizmo++: a visualization, authoring, and educational tool for motion planning	2006	4.396408354232413	-9.762660500310245	3110026
3110234	Graphics	structuring and use of motion data for computer manikin work task simulations	2014	5.2124956298400935	-9.615168150943443	3110261
3110359	HCI	an architecture for cognitive modeling to support real-time adaptation and motivational responses in video games	2013	4.5078137557809415	-8.57063431470088	3110386
3110636	Graphics	the technical art of uncharted 4	2016	6.05341606467465	-9.09648967029032	3110663
3110749	SE	evobasscomposer: a multi-objective genetic algorithm for 4-voice compositions	2010	5.531089081791061	-8.697387997551264	3110776
3110752	HCI	automated generation of agent behaviour from formal models of interaction	2000	5.3505698108248785	-8.561950077291195	3110779
3111402	AI	neural networks models for analyzing magic: the gathering cards	2018	5.527824176415416	-7.983433169943257	3111429
3112996	Visualization	the research of 3d terrain generation and interactivity realization techniques in virtual battlefield environment	2009	5.4061943396366	-8.872060748826552	3113023
3113124	AI	a novel approach for automated music composition using memetic algorithms	2011	5.3869898855252405	-8.292254289558214	3113151
3113706	AI	evolving levels for super mario bros using grammatical evolution	2012	5.179473618970488	-8.271468526963003	3113733
3114281	Graphics	mimicking hand-drawn pencil lines	2008	5.742807513187686	-9.226692754463473	3114308
3114352	ECom	an optimization approach to believable behavior in computer games	2012	4.5024728429075465	-8.043036698000886	3114379
3115167	Metrics	computed tomography studies applied to polychromed sculpture: the making process in three different times	2012	6.178704778748657	-8.13415818294698	3115194
3116293	HCI	analysis and synthesis of learning agent's communicative behavior	2005	5.48994800255407	-8.153410467001049	3116320
3116826	Graphics	a survey of synthetic biometrics: capabilities and benefits	2004	5.786072891646708	-9.217795045762026	3116853
3117251	Robotics	scoring robotic competitions: balancing judging promptness and meaningful performance evaluation	2018	4.391050428207927	-8.443905131245812	3117278
3117369	AI	evolving musical performance profiles using genetic algorithms with structural fitness	2006	5.359256177526941	-8.622910818395528	3117396
3117636	Graphics	art and animation	1991	5.826718123567934	-9.405263311358839	3117663
3118286	HCI	are commercially available simulators durable enough for classroom use?	2011	4.804353590061291	-9.568486781938953	3118313
3118630	AI	tanager: a generator of feasible and engaging levels for angry birds	2018	4.972718152093822	-8.307520323339523	3118657
3120374	AI	simon's anthill: mapping and navigating belief spaces	2018	4.848048220147311	-7.96925570244282	3120401
3121162	Visualization	merging fossil specimens with computer-generated information	2002	5.9587683129373845	-8.63543255590911	3121189
3121606	EDA	ai architectures for games: a review of 3d accelerator technology	2002	6.12412006119337	-8.997202222075787	3121633
3121803	Robotics	dex-net as a service (dnaas): a cloud-based robust robot grasp planning system	2018	4.378383213612336	-9.74286568511888	3121830
3122064	HCI	vmc: a tool for the analysis of variability in software product lines	2013	5.8583913304645225	-8.857298267983717	3122091
3122270	Graphics	temporal noise control for sketchy animation	2011	5.356062103289892	-9.733192475106195	3122297
3122472	Visualization	gluray: enhanced ray tracing in existing scientific visualization applications using opengl interception	2012	5.967669155774442	-8.527089431593161	3122499
3123497	PL	an executable modal of the interaction between verbal and non-verbal communication	2000	5.100540950867785	-8.391454170215935	3123524
3123589	Visualization	development and practice of teaching material in tablet computer based on computer graphics by quantumchemistry calculation reaction of i + h2?hi + h -	2012	5.424870376668661	-8.785979975192989	3123616
3124717	Visualization	visualizing the atomic nucleus	1999	6.04235969229153	-7.9819964069758615	3124744
3124803	Graphics	generating smooth virtual reality maps using 3d building blocks	2008	5.853311688307121	-9.319898680769187	3124830
3125420	Robotics	an approach for feature semantics recognition in geometric models	2004	5.20476198161419	-8.110476747196495	3125447
3125557	Theory	painterly fire	2002	5.796794778861357	-9.253138711748477	3125584
3126001	HCI	design intent-oriented modelling tools for aesthetic design	2003	6.007997798842107	-9.133708350621305	3126028
3126005	Graphics	creating a large area of trees based on forest pro	2013	5.816149584596901	-9.079846364034227	3126032
3126577	AI	audioinspace: exploring the creative fusion of generative audio, visuals and gameplay	2015	5.792148796544564	-8.397657692199775	3126604
3127057	Vision	incorporating characteristics of human creativity into an evolutionary art algorithm	2007	5.257040838749852	-8.201802524266933	3127084
3128253	HCI	procedural personas as critics for dungeon generation	2015	4.451404610445332	-8.10679129107067	3128280
3128295	AI	basic communicative acts (bcas): a strategy for implementing context-sensitive dialogue in social robots	2010	4.555832304218853	-9.405943758771636	3128322
3128334	HCI	visual generative behavior patterns to facilitate game development	2009	6.28194779089063	-8.595366190965331	3128361
3128941	ML	learning models for interactive melodic improvisation	1999	4.745076751770124	-8.75066502320109	3128968
3129758	DB	image quality management for the super hi-vision system at the kyushu national museum	2006	6.007177405241988	-8.341237201418854	3129785
3129875	HCI	level design optimization guidelines for game artists using the epic games: unreal editor and unreal engine 2	2008	5.768426867067982	-9.314340282080236	3129902
3131203	HPC	character-focused narrative generation for execution in virtual worlds	2003	5.8892377198864425	-9.084352015151188	3131230
3131396	AI	modeling interoperability between a reflex and reasoning system in a physical simulation environment	2015	4.729617260947151	-8.140532511916492	3131423
3131637	HCI	inferring design constraints from game ruleset analysis	2018	5.54514883496404	-8.203550584994414	3131664
3131779	AI	spicing up map generation	2012	5.177176171507321	-8.186127173743454	3131806
3132805	HCI	low cost technique for accurate geometric documentation of complex monuments by non-experts	2016	6.102740184147062	-8.17156956678749	3132832
3133732	Vision	deformation method for 3d identikit creation	2014	5.287424829462187	-9.616831821386283	3133759
3134219	Robotics	enhancing the behavior of virtual characters with long term planning, failure anticipation and opportunism	2012	4.802870511189316	-8.510487882830496	3134246
3134395	Graphics	real time animation playback on a frame store display system	1980	6.0662122867191695	-8.85944685415376	3134422
3134859	Web+IR	modeling an immersive vr driving learning platform in a web-based collaborative design environment	2012	5.075394756207606	-9.727735256695645	3134886
3135855	Robotics	robo-camal: a bdi motivational robot	2010	4.7596518818920845	-8.306954442424168	3135882
3136144	HCI	towards a generic method of evaluating game levels	2013	5.174789656518972	-8.150880312852902	3136171
3136227	Graphics	computer-generated images and traditional printmaking	1988	5.779376078872797	-9.324884186082317	3136254
3137248	Robotics	application for real-time generation of virtual 3d worlds based on l-system	2015	5.517723947314479	-9.053368358834495	3137275
3137596	Graphics	space-time cubification of artistic shapes	2017	5.802280028437905	-9.18452868435774	3137623
3138070	HCI	illustrative visualization of molecular reactions using omniscient intelligence and passive agents	2014	5.685638528763553	-7.946433420229901	3138097
3138216	Graphics	recent development in cnc machining of freeform surfaces: a state-of-the-art review	2010	5.589612754376767	-8.212766092268861	3138243
3138553	Graphics	a technology cocktail for a 3d photo-realistic model of a i century roman fountain: range scanning, rti and physically based rendering	2008	6.1967262637539235	-8.009334779029349	3138580
3138649	Visualization	improving graphic expression training with 3d models	2017	5.912005000648862	-8.130934102100138	3138676
3138972	HCI	a user-centric adaptive story architecture: borrowing from acting theories	2004	5.834750981011523	-8.739788612208763	3138999
3139100	EDA	surface roughness visualisation for rapid prototyping models	2002	6.277639569358598	-8.372023455066659	3139127
3139688	Graphics	reproduction of gloss, color and relief of paintings using 3d scanning and 3d printing	2017	5.834327635403472	-8.684387239372253	3139715
3139920	Vision	implementation of source engine for virtual tours in manufacturing factories	2013	6.125771657984608	-9.515096293794523	3139947
3140612	AI	planning for social interaction in a robot bartender domain	2013	4.723495666997148	-8.751101088623429	3140639
3141542	Graphics	graphic waveshaping	2013	6.265691419915908	-8.909775130441144	3141569
3142387	Visualization	guest editor's introduction: special section on the joint conference on geometric design and solid and physical modeling (gdspm)	2011	5.743865710810517	-8.543012749469241	3142414
3142848	HCI	added value of a 3d cave within design activities	2018	5.346715071521066	-9.723864930810494	3142875
3143558	HCI	carving, painting, and printing with a pen tablet	2005	5.8371617300354925	-9.384348476700364	3143585
3143865	ECom	online behavior change detection in computer games	2013	4.446102672298666	-8.137714185439823	3143892
3144116	AI	semiautomatic rule assist architecture modeling	2007	5.894268186260514	-8.487117514406549	3144143
3144201	Visualization	capturing and representing brdfs for virtual reality	2016	5.537960331798898	-9.627294629581096	3144228
3144294	HCI	perception-action icons: an interface design strategy for intermediate domains	2007	4.715114744629158	-9.748567699495393	3144321
3144675	AI	understanding manipulation in video	1996	6.018858088544525	-9.382240161060832	3144702
3145218	Vision	calibration and spectral reconstruction for an art painting multispectral acquisition system	2004	6.055910951629577	-8.158872599214492	3145245
3145909	Visualization	a space to dream	2006	6.217330548412588	-8.96361399675107	3145936
3145960	AI	beautifying font: effective handwriting template for mastering expression of chinese calligraphy	2017	5.8102017500835075	-9.726238609699653	3145987
3146038	Visualization	the hierarchical perception model for crowd simulation	2009	4.689953162619012	-9.126739505460575	3146065
3146680	Graphics	interactive computer graphics application of the bi-cubic parametric surface to engineering design problems	1974	6.141380706550063	-8.21850386448416	3146707
3147674	AI	agent design to pass computer games	2004	4.9540067249071225	-7.993724738038738	3147701
3147878	Robotics	prototyping automotive smart ecosystems	2018	5.4157481383307635	-9.126521710404498	3147905
3148166	Graphics	model based interactive sound for an immersive virtual environment	1994	6.079950190980651	-9.801223847812981	3148193
3149063	HCI	user driven two-dimensional computer-generated ornamentation	2008	5.984296929350202	-9.120843749494789	3149090
3150276	Graphics	practical benefits of animated graphics in simulation	1984	5.952363155189503	-9.158640397297473	3150303
3150401	Visualization	optical 3d digitizers: bringing life to the virtual world	1998	5.549403846220624	-9.739178058087518	3150428
3150976	Graphics	a new style of ancient culture: animated chinese dunhuang murals	2004	5.722849204098168	-9.26562530215638	3151003
3151005	HCI	from abstraction to reality: integrating drama management into a playable game experience	2009	5.411197384904195	-8.366278655026038	3151032
3151659	Robotics	research on multiple 3d models rebuilding of scene simulation platform	2009	5.888304991221764	-8.259690529562372	3151686
3152821	AI	qualitative physics in virtual environments	2004	5.647201836360832	-8.780160746234081	3152848
3153165	Visualization	the design of desktop virtual reality environment based on vrml: digital tju navigation system	2004	6.178326278357375	-9.638882201544453	3153192
3153770	Graphics	evolving expression of emotions in virtual humans using lights and pixels	2008	5.449797929922847	-8.57457517821115	3153797
3153822	Visualization	animated construction of chinese brush paintings	2018	5.717913796373018	-9.209940419957107	3153849
3156770	Visualization	title of tutorial: designing immersive vr systems: from bits to bolts	2012	6.128702812224818	-9.800768083640154	3156797
3157214	HCI	evaluating the effectiveness of personal cognitive augmentation: utterance/intent relationships, brittleness and personal cognitive agents	2018	4.846669854178353	-8.903444111574169	3157241
3157274	AI	deictic believability: coordinated gesture, locomotion, and speech in lifelike pedagogical agents	1999	5.0887784166359245	-9.132429095236851	3157301
3159017	Graphics	the hrd-1 laser display system	1976	5.95281400900926	-9.274125726121495	3159044
3159542	HCI	embodying personhood to enhance emotional engagement and reciprocity between assistive robot and people with autism	2014	5.1363835003542215	-9.509689462903577	3159569
3160109	Graphics	3d character modeling in virtual reality	2002	6.242194526669644	-9.089289714068864	3160136
3160190	Graphics	interactive mixed reality rendering in a distributed ray tracing framework	2005	5.911184783204344	-9.081042548209027	3160217
3161622	HCI	changibles: analyzing and designing shape changing constructive assembly	2014	5.86683381206861	-9.474529226343424	3161649
3161685	HCI	the learning agent based interactive performance system	2003	4.637736310589384	-8.107637543022731	3161712
3161996	EDA	towards an evolvable engineering design framework for interactive computer design support of mechatronic systems	2006	4.862271642899245	-8.991887090619683	3162023
3162180	AI	on human–machine relations	2017	4.3895872457563945	-9.5170350529816	3162207
3162383	Visualization	naughty agents can be helpful: training drivers to handle dangeroussituations in virtual reality	2006	4.700805107405137	-9.040718044667091	3162410
3162816	Robotics	nico — neuro-inspired companion: a developmental humanoid robot platform for multimodal interaction	2017	4.4845065957783765	-8.514962711076219	3162843
3162994	HCI	proteus - semi-automatic interactive structure-from-motion	2009	5.643654494445156	-9.660840444222751	3163021
3163181	Vision	a multi-layered framework for color pastel painting	2017	5.669592138045994	-8.497373158271406	3163208
3163203	Graphics	towards expressive 3d modeling: new challenges for geometric computing	2014	5.860056347104642	-9.14263766601057	3163230
3163719	Robotics	automatic generation of balletic motions	2011	5.040128483676393	-9.195503721039179	3163746
3163746	AI	modeling the dynamics of non-player characters' social relations in video games	2008	5.09358633411187	-8.390475526680275	3163773
3163967	HCI	a pen-based tool for efficient labeling of 2d sketches	2007	5.948018995887699	-9.460428287515066	3163994
3165055	Robotics	siros: a framework for human-robot interaction research in virtual worlds	2010	4.492419716216427	-8.881226975802058	3165082
3165290	Graphics	"""""""it's a uvn face rig, charlie brown"""": facial techniques for peanuts"""	2015	5.790891980215858	-9.454918994670416	3165317
3166194	Visualization	using collaborative virtual geographic environment for fire disaster simulation and virtual fire training	2012	4.8918642827658125	-8.618729829837859	3166221
3167116	Robotics	requirements for an architecture for believable social agents	2000	5.202049760254578	-8.156955279479924	3167143
3169118	HCI	surfaces for interactive graphical design	1970	6.138016989645977	-8.298938736971392	3169145
3169990	AI	a logic-based tool for interactive generation and dramatization of stories	2005	6.00094140359269	-8.562746047173352	3170017
3171074	Robotics	performance of emotional group robotic system using mass psychology	1997	4.390830051267375	-8.084809167021525	3171101
3171656	HPC	virtual reality based interactive conceptual simulations - combining post-processing and linear static simulations	2013	5.6926243067461435	-8.211776733720187	3171683
3171784	Robotics	office layout support system for polygonal space using interactive genetic algorithm — generation of layout plans for workspace —	2012	5.070542262202872	-9.785265964691016	3171811
3172048	Robotics	interactive system of artificial fish school based on the extended boid model	2008	4.451979570876301	-8.615084180563747	3172075
3172367	AI	research into models and algorithms of artificial life	1996	5.114696137003349	-7.903053417062383	3172394
3172787	AI	a multi-agent system for creating art based on boids with evolutionary and neural networks	2016	4.6182805163210805	-8.147897703440638	3172814
3172981	Graphics	animation control for real-time virtual humans	1999	4.854750142759878	-9.350647592335472	3173008
3172989	Vision	a computational framework for next-generation bridge imaging and inspection	2012	4.712885005850072	-9.733180994052066	3173016
3173052	AI	learning by imitation of behaviors for autonomous agents	2002	4.606163128052459	-8.345808991273815	3173079
3173251	Visualization	towards a virtual reality interactive application for truck traffic access management	2016	4.6107313233102944	-9.540292458925103	3173278
3173359	AI	tielt: a testbed for gaming environments	2005	4.4740842686360125	-8.113387378773082	3173386
3173504	Graphics	a 3d display system for cloth online virtual fitting room	2009	5.809887621499343	-9.696294770692317	3173531
3174069	Visualization	behavior generation for interactive virtual humans using context-dependent interaction meshes and automated constraint extraction	2015	5.792050255243584	-8.811999453809374	3174096
3175099	HPC	graphics and visualization: the essential features for the classification of systems	1993	6.255181063530372	-8.793489267205713	3175126
3175694	AI	reinforcement learning for declarative optimization-based drama management	2006	5.134353773837789	-8.226162232656138	3175721
3176272	EDA	neo euclide: a low-cost system for performance animation and puppetry	2003	6.060227080519375	-9.724331152579364	3176299
3176574	HCI	game player modeling using d-fsms	2007	4.832719265579611	-8.388911997753581	3176601
3177769	HCI	cigro: a minimal instruction set calligraphic interface for sketch-based modeling	2003	5.984028745671357	-8.999192312024352	3177796
3178739	Graphics	solid modeling(panel session)	1983	6.163661726012047	-8.185030340368018	3178766
3180656	Graphics	color and range sensing for hypermedia and interactivity in museums	1991	6.066242041835861	-9.315169870027756	3180683
3181559	HCI	an investigation of techniques for sketch-based human modelling and animation	2006	6.067736134478428	-8.47087647063105	3181586
3181713	HCI	how2sketch: generating easy-to-follow tutorials for sketching 3d objects	2017	5.708114720241596	-9.33977726240198	3181740
3182012	Vision	unwritten procedural modeling with the straight skeleton	2014	5.780525745643351	-8.762682516754088	3182039
3182168	HCI	design and implementation of a game physics editor using xml	2006	6.1654137284800745	-8.881459843670926	3182195
3182958	Vision	3-d video modeling	1992	5.532644635303134	-9.644761528729052	3182985
3183132	AI	ga-tetris bot: evolving a better tetris gameplay using adaptive evaluation scheme	2014	4.386555299498276	-8.06164900071559	3183159
3183491	Graphics	depicting shape, materials and lighting: observation, formulation and implementation of artistic principles	2015	5.445692459400213	-9.430619367502173	3183518
3183820	Graphics	direct manipulation of free-form deformations	1992	5.362736371956259	-9.80193882263966	3183847
3183888	NLP	predicting sky dome appearance on earth-like extrasolar worlds	2013	5.800302433338826	-8.936418389687283	3183915
3184033	Vision	example-based cosmetic transfer	2007	6.019534877161385	-9.779193000231912	3184060
3184071	NLP	tlachtli: a framework for soccer agents based on geda-3d	2004	4.863820938016632	-8.883067860782965	3184098
3184842	AI	corpus-taught evolutionary music composition	2015	5.48608401796831	-8.645495609688108	3184869
3185252	HCI	designing symmetric high-genus sculptures	2006	5.897715035788926	-8.68764347424582	3185279
3185628	HCI	designing a tangible interface for manager awareness in wilderness search and rescue	2018	6.266884556040419	-9.035632384795992	3185655
3186218	Vision	qos-enabled streaming of animated 3-d wireframe models	2004	6.100444159734713	-8.346545020648067	3186245
3186381	AI	computational model of emotion generation for human-robot interaction based on the cognitive appraisal theory	2010	4.933594664029263	-8.309398253448103	3186408
3186633	Graphics	the site	2004	5.7699737634359565	-9.204853314750848	3186660
3186862	Graphics	programmatic 3d printing of a revolving camera track to automatically capture dense images for 3d scanning of objects	2018	5.3473370543468475	-9.692103298997967	3186889
3187768	Arch	a simple model generation system for computer graphics	2005	5.8560233919963895	-9.004828931666061	3187795
3187885	NLP	ad hoc creature: lost and added in translation from description to depiction	2012	5.7477146888765525	-8.241367264614402	3187912
3188794	HCI	a three-stage conceptual design process using virtual environments	2004	5.914285657012068	-9.093333561837538	3188821
3189334	Graphics	gpu-based rendering and animation for chinese painting cartoon	2007	5.457776900886994	-9.416087926570787	3189361
3190033	Graphics	procedural arrangement of furniture for real-time walkthroughs	2009	5.964689691663391	-9.043748089262227	3190060
3190383	HCI	philips 3d solutions: from content creation to visualization	2006	4.994750288761719	-9.7729161955832	3190410
3190924	Graphics	towards digital creatures in real-time 3d games	2000	5.438994178083341	-9.195346097947805	3190951
3191604	Visualization	adapting vrml 2.0 for immersive use	1997	6.282421878903478	-9.208177141524516	3191631
3191969	Robotics	consensus: a comprehensive solution to the grand challenges of information fusion	2015	4.499875306857328	-8.941457396006909	3191996
3193430	HCI	guest editorial screen content video coding and applications	2016	4.488307819596466	-9.777921304771834	3193457
3193818	Robotics	computer-aided design applications on microcomputers	1984	6.0502779182081925	-8.899839371677054	3193845
3194316	AI	a review of motion analysis methods for human nonverbal communication computing	2013	5.154513193587713	-8.190043324737145	3194343
3194620	Web+IR	multi-objective feature selection in music genre and style recognition tasks	2011	5.31978653257112	-8.225688984430944	3194647
3195514	Graphics	animal controlled computer games: playing pac-man against real crickets	2006	4.4715447182464745	-8.339387687258336	3195541
3198133	AI	ready or not, here i come ...	2005	4.598959538499416	-8.50346733330056	3198160
3198588	AI	multimodal communication from multimodal thinking - towards an integrated model of speech and gesture production	2008	6.171346487320112	-8.009378165794107	3198615
3199734	Visualization	reconstructing the west mebon vishnu: a marriage of traditional artefactual analysis with digital 3d visualization	2007	6.2666617521324826	-8.103653178930754	3199761
3200082	HCI	"""evolutionary co-operative design between human and computer: implementation of """"the genetic sculpture park"""""""	2000	5.524500586787217	-8.379511482599112	3200109
3200710	Robotics	genetic algorithm-based brush stroke generation for replication of chinese calligraphic character	2006	5.3284218746190275	-8.49464024351872	3200737
3202369	AI	don't you escape! i'll tell you my story	2004	4.762384142001877	-8.056401915798036	3202396
3202420	Graphics	lworld: an animation system based on rewriting	2002	5.861661469624933	-8.633675724988434	3202447
3202873	HCI	revisiting turtles and termites: an open-ended interactive physical game with multiple robots	2017	4.7927723479284445	-8.241913778703777	3202900
3203695	Graphics	distributions cohérentes de primitives pour le rendu expressif de scènes animées et le rendu en demi-tons. (coherent distribution of primitives for animations' stylisation and halftoning)	2008	5.537625660284103	-9.357241940950313	3203722
3203709	AI	planning for non-player characters using htn and visual perception	2015	4.643519853684128	-8.531833021985078	3203736
3204161	Web+IR	efficient production techniques for high quality lighting in vast open world games	2015	5.757231838893914	-9.146342145007363	3204188
3204849	HCI	analysis of small game areas of 4vs4 and 7vs7 in spanish professional football	2014	4.678198432602849	-8.55204335691433	3204876
3205453	Robotics	dense visual slam	2012	4.956129479956956	-9.372426140710822	3205480
3206668	Vision	interactive classification for deep learning interpretation	2018	5.843859458564936	-9.594730983434934	3206695
3207214	Vision	a framework for interactive generation of music for games	2012	5.00488559384767	-8.507439922806691	3207241
3207304	NLP	mkultra (demo)	2015	4.835164187698084	-8.308074694400519	3207331
3207569	HCI	sketch express: facial expressions made easy	2011	5.352827009744575	-9.731754046122402	3207596
3208373	Graphics	3d emotional rendering method utilizing coloration and shading to make virtual character design in culture contents development	2010	5.863090159717398	-8.443401500473787	3208400
3209210	Graphics	accessible animation and customizable graphics via simplicial configuration modeling	2000	6.2857027342232925	-8.389355499335124	3209237
3209411	AI	agent script generation using descriptive text documents	2014	6.299942249874864	-9.204271732186877	3209438
3210398	Robotics	computer-assisted robotic tiling of mosaics	2004	4.455138668719385	-9.433900640024401	3210425
3210512	Robotics	talking robots with lego mindstorms	2004	4.501364728680907	-9.696406260505027	3210539
3210814	Graphics	fit and diverse: set evolution for inspiring 3d shape galleries	2012	5.331597272133961	-8.335529560640401	3210841
3212801	Visualization	computer-assisted reconstruction of virtual fragmented cuneiform tablets	2014	6.176387225874648	-8.361382921381352	3212828
3213035	Graphics	blockbusters and blackboards	2006	6.075683193200918	-9.040798438081293	3213062
3213070	AI	an ai system for large open virtual world	2014	5.028564404859091	-8.719938074648503	3213097
3213340	Visualization	enabling smooth and scalable dynamic 3d visualization of discrete-event construction simulations in outdoor augmented reality	2007	6.181737302422796	-8.839227535989803	3213367
3215769	Graphics	authoring and animating painterly characters	2013	5.261513558409003	-9.60443075833229	3215796
3217000	HCI	3d painting: paradigms for painting in a new dimension	1995	5.987677962361468	-9.45698701102364	3217027
3217316	Graphics	rendering tons of sand	2007	5.739482767558321	-9.103429619737833	3217343
3217686	AI	cooperative pathfinding	2005	4.649102894335115	-8.29581066209724	3217713
3219499	Visualization	superplot3d: an open source gui tool for 3d trajectory visualisation and elementary processing	2013	5.692936465547276	-9.494898225369717	3219526
3219684	Visualization	research on 3d visualization of crystal molecular structure based on augmented reality	2008	6.145803542360952	-9.762209697098218	3219711
3219804	Graphics	visual creation of inhabited 3d environments	2008	6.263753362931089	-8.973953388268688	3219831
3220003	AI	semi-autonomous avatars in world of minds: a case study of ai-based game design	2008	5.192137218615633	-8.399762597983832	3220030
3220058	HCI	design and implementation of a procedural content generation web application for vertex shaders	2016	6.238681654768617	-8.540774819955361	3220085
3220558	Graphics	multi-style paper pop-up designs from 3d models	2014	5.702766372128908	-9.537324892684836	3220585
3220945	Robotics	beyond range sensing: xyz-rgb digitizing and modeling	2000	6.248510825893678	-8.423888207924907	3220972
3221256	HCI	mobile display technologies: past, present and future	2014	5.125346580995542	-9.589242778567185	3221283
3221772	Graphics	a lifelikeness induced by intereaction with abstract expression using reaction-diffusion model	2006	5.978186998865203	-8.580615040304847	3221799
3222021	HCI	preprint arpps augmented reality pipeline prospect system	2015	4.876177164861509	-9.065293827631734	3222048
3222034	Graphics	3d simulation of prints for improved soft proofing	2004	5.6721928725932385	-9.145393245382683	3222061
3222210	AI	modeling children's entertainment in the playware playground	2006	4.942850264795396	-8.570382795411978	3222237
3222876	Graphics	interacting with the galatea film analysis system	1976	6.286609768889508	-9.36871971493686	3222903
3223258	HCI	monitoring commitments in people-driven service engagements	2013	5.343511308354299	-7.906355849063137	3223285
3223706	EDA	voxel primitive based modeling and simulating method for surface micromachining technology	2013	5.216741003634789	-8.9784340030573	3223733
3223711	AI	morpheus: generating structured music with constrained patterns and tension	2018	5.4317895194877375	-8.670370976587616	3223738
3224289	HCI	japanese painting study tool: a system for creating nihonga portraits	2011	5.832284425185648	-9.445893345796025	3224316
3224310	AI	collaborative autonomy through analogical comic graphs	2017	5.267898879032064	-8.194179564907062	3224337
3224336	Graphics	two methods for creating chinese painting	2002	5.857240137844258	-9.300951609563572	3224363
3224446	Visualization	collision module integration in a specific graphic engine for terrain visualization	2004	6.139975259269908	-8.00906464475333	3224473
3224731	Graphics	digital ira: creating a real-time photoreal digital actor	2013	5.736620151225175	-9.390028908142133	3224758
3224772	Web+IR	comparing learning methods	2009	4.408356152937039	-8.110569119211911	3224799
3224791	Robotics	crafting large prototypes	2001	5.6384004725818	-9.045070080671	3224818
3226190	Graphics	real-time image based lighting in software using hdr panoramas	2003	5.783160480066078	-9.506164427856804	3226217
3227587	Robotics	social robotics—trust, learning, and social interaction	2018	4.8826098514227265	-9.31680962363175	3227614
3227602	EDA	wearable computers: field-test results and system design guidelines	1997	4.488944669321397	-9.753275501811592	3227629
3227627	AI	visual-textual prototyping of 4d scenes	1997	6.291307398638541	-9.2080681572104	3227654
3229132	AI	modeling ontology for multimodal interaction in ubiquitous computing systems	2012	4.520579981383151	-9.388750364404055	3229159
3229616	Graphics	life before the chips: simulating digital video interactive technology	1989	5.82100895718877	-8.899392198007543	3229643
3230082	HCI	toward a unified theory of the multitasking continuum: from concurrent performance to task switching, interruption, and resumption	2009	4.750161339928743	-8.261150813896544	3230109
3230109	Robotics	in-game tactic adaptation for interactive computer games	2011	4.393200748605151	-8.173563255654674	3230136
3230349	Graphics	an approach for automated scene management in real-time medical simulation framework	2016	5.96923588948748	-8.802830108241618	3230376
3230627	EDA	an easy-to-use ar authoring tool for industrial applications	2012	6.12740743341802	-9.4351412405377	3230654
3231998	HCI	teaching human facial modeling through plaster face casting	2002	5.658184371853513	-9.356057997726307	3232025
3232361	Graphics	rats ad infinitum	2006	5.657189085703294	-9.348073558773352	3232388
3233559	HCI	the user in the group: evaluating the effects of autonomous group dynamics	2007	5.078776888816245	-8.215615757732769	3233586
3233654	HCI	visualization of high-resolution image collections on large tiled display walls	2011	5.863054681533852	-8.976764101757167	3233681
3233829	AI	the episodal associative memory: managing manufacturing information on the basis of similarity and associativity	1993	4.670206386344797	-8.715912168482971	3233856
3234436	HCI	quantitative and qualitative analysis of the perception of semi-transparent structures in direct volume rendering	2018	6.288385681561853	-7.89785838844646	3234463
3235609	Visualization	nautilus - the environment for training and testing	2002	6.194096062895745	-9.142581504627703	3235636
3235708	HCI	football analysis using spatio-temporal tools	2014	4.9019045947824536	-7.953407585436062	3235735
3235752	HCI	an automated 3d modelling application based on vertices from 2d paper sketches	2017	5.741966703008746	-9.437327750955015	3235779
3236265	Visualization	illustrative informationsvisualisierung	2013	6.268399829794806	-8.834165997089631	3236292
3236309	PL	subjectivity and the relaxing of synchronization in networked virtual environments	1999	5.848273516960558	-9.594801676640929	3236336
3236502	HCI	computer-generated iron filing art	2014	5.807348567337238	-9.709674535546961	3236529
3236700	Theory	review of: jewels of stringology by maxime crochemore and wojciech rytter	2015	5.065882273017535	-8.228971788291483	3236727
3236744	HCI	touching and interacting with inaccessible cultural heritage	2015	5.965963982442196	-9.241477914142102	3236771
3236915	AI	mags project: multi-agent geosimulation and crowd simulation	2003	5.020025020588569	-8.165292513412183	3236942
3237998	Graphics	interactive dynamic abstraction	2000	6.280849687459104	-8.595764039578382	3238025
3238416	Logic	veha, un métamodèle d'environnement virtuel informé et structuré	2009	5.407318427898141	-8.582068963767721	3238443
3238753	Robotics	segmenting action for computers and humans: possible links to intentional understanding	2005	6.024152955177512	-7.943627167314935	3238780
3238968	Visualization	intuitive visualization of reflectance transformation imaging for interactive analysis of cultural artifacts	2014	6.002741999788946	-9.659248272250622	3238995
3239098	Theory	a polynomial algorithm for homomorphisms to oriented cycles	1995	5.0389023927606935	-8.973917657807984	3239125
3239595	Visualization	exploratory performance analysis and tuning of parallel interactive volume visualization on large displays	2015	5.510770440841927	-9.696121162690881	3239622
3239706	Graphics	"""modeling and rendering of clouds on """"stealth"""""""	2005	5.842954537075838	-9.005648400576588	3239733
3240193	Graphics	an interactive 3d exhibition system with global illumination for digital museum	2009	5.5515103098512055	-9.76252640566527	3240220
3243296	HCI	an approach to level design using procedural content generation and difficulty curves	2013	5.150728056426218	-8.196162332288718	3243323
3243300	Graphics	oz: the great and volumetric	2013	5.871150909788272	-8.994467646200121	3243327
3243330	EDA	soft products development	2010	5.468199855350572	-9.41638797471406	3243357
3243603	AI	the angry birds ai competition	2015	4.426348061588769	-8.027043801883234	3243630
3243784	AI	design of populations in symbiotic evolution to generate chord progression in consideration of the entire music structure	2015	5.124996763599528	-8.359328852464829	3243811
3244348	AI	pac - personality and cognition: an interactive system for modelling agent scenarios	1997	4.8619440494952615	-8.408839621246742	3244375
3244955	Robotics	cognitive spatial representative map for interactive conversational model of service robot	2018	4.815277438170299	-9.043229416775553	3244982
3245347	AI	a bio-inspired evolutionary approach to identifying minimal length decision rules in emotional usability engineering	2009	4.949120278647708	-8.224486310178047	3245374
3246995	Graphics	hifi color printing within a color management system	1997	5.454233886135869	-9.106186513527557	3247022
3247054	Visualization	dynamics modeling and culling	1999	5.527782987832123	-9.266807137206019	3247081
3247392	Graphics	rock the world	2004	5.696634352590588	-9.274001581045605	3247419
3248179	AI	evolving art using aesthetic analogies - evolutionary supervised learning to generate art with grammatical evolution.	2016	5.316000485980132	-8.340004990161571	3248206
3248345	Graphics	surface reconstruction algorithms in cultural heritage digital representation	2009	6.125063033236338	-8.169483028992241	3248372
3248386	Graphics	paramétrisation et transfert d'animations faciales 3d à partir de séquences vidéo : vers des applications en temps réel. (rigging and retargetting of 3d facial animations from video : towards real-time applications)	2011	5.4239458896573165	-9.752825448830643	3248413
3248484	Graphics	a geometric modeling system for automated mechanical assembly	1980	5.6015638741521325	-8.254070384151381	3248511
3249504	Vision	evolution of aesthetically pleasing images without human-in-the-loop	2010	5.255046261622697	-8.42531732078001	3249531
3250537	Vision	methods for automated object placement in virtual scenes	2009	4.384872515378846	-9.022877531893519	3250564
3250652	HCI	system for automated interactive lighting (sail)	2009	5.733148857463242	-9.527728180853867	3250679
3250666	Robotics	graphical display of search trees for transparent robot programming	2012	4.490970653376763	-9.723128525893364	3250693
3251307	HCI	a display system for health risks from radiation visualized by cg technology	2001	4.992002909884705	-8.512071959239007	3251334
3251631	Graphics	3d reality modelling: photo-realistic 3d models of real world scenes	2002	6.189212728976724	-8.555126791805652	3251658
3251866	Graphics	using photographic quality images in desktop applications (panel session)	1990	6.028500334138834	-9.160841969102385	3251893
3252642	Graphics	the wave method of building color palette and its application in computer graphics	2017	5.913363494723988	-8.33776498961063	3252669
3252898	AI	"""""""press space to fire"""": automatic video game tutorial generation"""	2017	4.849302940411367	-8.307201143577206	3252925
3254499	HCI	the landmark architectures in the kakioka magnetic observatory	2013	5.957388275714929	-8.10033726157155	3254526
3255267	Vision	recognizing interspersed sketches quickly	2009	6.160022391996559	-9.147864550446068	3255294
3255775	Visualization	model-based specification of virtual interaction environments	2004	5.960757449691068	-9.114990438708679	3255802
3255818	Robotics	interactive image processing for mobile devices	2009	4.482606907141818	-9.649687878615108	3255845
3255900	AI	developing virtual heritage applications as normative multiagent systems	2009	5.257725964920653	-8.242233647532554	3255927
3256134	HPC	zebra image access system	1998	6.007030044965557	-9.612187713209755	3256161
3256281	AI	virtual constructive swarm compositions and inspirations	2008	5.6100580532387125	-8.11691697293489	3256308
3256384	AI	an architecture for action, emotion, and social behavior	1992	5.07663124128392	-8.582778800527466	3256411
3259045	AI	natural language communication between human and artificial agents	2006	5.150754489197044	-7.930935462291233	3259072
3259107	Graphics	balanced virtual humans interacting with their environment	2006	5.710552396904968	-9.756255187261162	3259134
3259478	Graphics	some considerations in the development of color rendering and gamut mapping algorithms	2005	5.545988144521239	-8.373342262589508	3259505
3261560	Graphics	simulation of human behavior elements in a virtual world using decision trees	2013	5.023710629345341	-9.082386433585006	3261587
3261804	Graphics	abstracted painterly renderings using eye-tracking data	2002	6.0004050318253634	-9.190553715934481	3261831
3262085	Visualization	code: crowd-optimized design of environments	2017	4.770829242311233	-9.047153189148494	3262112
3263006	AI	towards automation and classification of bharatanatyam dance sequences.	2014	5.522609948592534	-8.860424288200797	3263033
3263034	Robotics	a haptic-based part decomposition method for multi-material product design	2011	5.562482449163887	-9.365690962829367	3263061
3263622	Vision	from virtual to real, human interaction as a validation process for ives	2015	4.634060187399131	-9.330835899368287	3263649
3265073	Mobile	a holistic virtual laboratory on wireless communications and sensor networks	2013	5.591998184013313	-8.75393335796598	3265100
3266891	Theory	recovery of fragile objects from underwater archaeological excavations: new materials and techniques by sasmap project	2014	6.042334166814103	-8.14445957593475	3266918
3267101	AI	behaviour coordination for models of affective behaviour	2011	5.12288401070778	-8.473176640172941	3267128
3267377	HCI	verifying the behaviour of virtual environment world objects	2000	6.1322456426370175	-9.380189874259198	3267404
3268236	Vision	visualisation and metavisualisations: helping a user with colour gamut mapping	1996	6.230266051910427	-7.956678134437344	3268263
3268412	Graphics	an interactive appearance model for microscopic fiber surfaces	2016	4.98707854501009	-9.727643938555275	3268439
3268491	HCI	savit: technique for visualization of digital home safety	2009	5.300351653809892	-9.216784558674675	3268518
3269982	Vision	geometric issues in reconstruction of virtual heritage involving large populations	2014	5.774135781726208	-8.831868814571099	3270009
3271091	Vision	free-viewpoint video for tv sport production	2010	4.916331624049722	-9.753559236050489	3271118
3271227	Visualization	gavrinis: the raising of digital stones	2013	6.1636222930787765	-8.125544302064384	3271254
3271849	ML	an accelerated stroke algorithm for drawing maps	2016	6.105654347811747	-8.720462959721523	3271876
3272184	HPC	coupling parallel simulation and multi-display visualization on a pc cluster	2003	6.2480008545186045	-8.730943013846522	3272211
3272558	AI	man multi-agent interaction in vr: a case study with robocup	2000	4.594285698815525	-8.938054028938922	3272585
3273600	Visualization	the visorama system: a functional overview of a new virtual reality environment	1997	6.250651338064139	-9.268834556493832	3273627
3273937	AI	generating fingerings for polyphonic piano music with a tabu search algorithm	2015	5.441317561796362	-8.676818865233374	3273964
3274049	Robotics	virtual humans in serious games	2009	5.175129780657968	-8.934717702741516	3274076
3274223	EDA	transistor technologies and pixel circuit design for efficient active-matrix organic light-emitting diode displays	2012	5.060380756306167	-9.340795808595816	3274250
3274311	Graphics	mure: fast agent based crowd simulation for vfx and animation	2016	5.682933997059116	-9.05454538068465	3274338
3275520	AI	do prospect-based emotions enhancebelievability of game characters? a casestudy in the context of a dice game	2014	4.98269292501925	-8.240380375832675	3275547
3275774	AI	service composition with pddl representations and visualization over videogame engines (short paper)	2015	4.951593550852683	-8.552119855164811	3275801
3275995	Graphics	interactive tools to support animation tasks	1986	5.7406883571800185	-8.993751311054574	3276022
3276127	Vision	simulation of longitudinal geometric yarn structure	2011	5.6365097012123515	-9.089791173472392	3276154
3276742	ML	a meta-instrument for interactive, on-the-fly machine learning	2009	6.016193892172755	-8.124886541162072	3276769
3277480	Robotics	entertainment robots - myth or reality	2001	4.577939825742911	-8.593429479109174	3277507
3277519	HCI	conceptual design and modification of freeform surfaces using dual shape representations in augmented reality environments	2012	5.495950283676807	-9.697870522589488	3277546
3278335	Graphics	an algorithm for producing half-tone computer graphics presentations with shadows and movable light sources	1970	5.754647946135982	-9.466110329972807	3278362
3278442	HCI	the correlation between the ability to read and manually reproduce a 3d image: some implications for 3d information visualisation	2009	6.204324106637549	-9.4355860389446	3278469
3278477	HCI	logic control for story graphs in 3d game narratives	2015	6.006193369895607	-8.607370716405491	3278504
3278630	AI	situated conceptualization: a framework for multimodal interaction (keynote)	2017	5.1236936236318495	-8.02677046391774	3278657
3278722	Visualization	active digital press optimization	2014	5.8531954593440325	-8.423886296038699	3278749
3279164	AI	chopin or not? a memetic approach to music composition	2013	5.409290117162879	-8.404441295046787	3279191
3279752	HCI	3d printing for math professors and their students	2013	5.463233637473533	-9.420267781365244	3279779
3279819	AI	ants can play music	2004	5.0608645753703225	-8.250660768882952	3279846
3280328	AI	design of a fuzzy affective agent based on typicality degrees of physiological signals	2014	4.902010342115875	-8.325373677526361	3280355
3280359	Robotics	evolving self portraits with mandelbrot math	2015	5.763928659684505	-8.132574277084485	3280386
3281496	HPC	kites flying in and out of space--distributed physically based art on the grid	2003	5.7993691694856775	-8.860536082825346	3281523
3282583	NLP	elevated pitch: automated grammatical evolution of short compositions	2009	5.302245187414889	-8.397097186969084	3282610
3282702	HCI	hallway based automatic indoor floorplan construction using room fingerprints	2013	5.320515615616103	-8.74667505833264	3282729
3282821	HCI	from sfm to semantic-aware bim objects of architectural elements	2016	6.203094248778949	-7.9062063778577185	3282848
3283021	Arch	geometry of architectural freeform structures	2008	6.009734653600014	-8.519818602612268	3283048
3284807	Graphics	function-defined shape metamorphoses in vrml	2005	5.960620014877795	-8.853268611738358	3284834
3285652	Visualization	photorealistic rendering of scientific data	2012	6.230831044635807	-9.322209031948725	3285679
3286402	Graphics	creating and implementing photographic 3d on the web	2002	5.972544401118925	-9.375236348130775	3286429
3286679	NLP	inverse mapping with sensitivity analysis for partial selection in interactive evolution	2013	5.415279895048666	-7.937177640691894	3286706
3287096	AI	deciding to remind during collaborative problem solving: empirical evidence for agent strategies	1996	4.809995588313996	-8.163889572963834	3287123
3287910	HCI	evofab: a fully embodied evolutionary fabricator	2010	4.76056675835596	-8.428489527871175	3287937
3288370	HCI	material light: exploring expressive materials	2005	5.959714181751674	-9.352668720716482	3288397
3289257	EDA	automatic generative design to meet customer's preferences	2014	5.3516367729316245	-8.076334051706228	3289284
3289722	Graphics	the lego movie: construction, animation and demolition	2014	5.826974978129321	-9.120201016207398	3289749
3290613	EDA	idset: interactive design system using evolutionary techniques	2001	5.807096088221704	-9.0119536222783	3290640
3290707	Visualization	a haptic virtual reality training tool for paper conservators	2003	5.4836189570853415	-9.674878311081402	3290734
3290843	Graphics	clothing the masses: real-time clothed crowds with variation	2006	5.2928595330971415	-9.572317243356698	3290870
3291004	Vision	recovery of visual structure in illustrated japanese gardens	2007	6.209511033121691	-8.140418116210006	3291031
3293075	Graphics	automatic optimization of 3d mesh data for real-time online presentation	2018	6.01858814807849	-9.041668476803645	3293102
3293162	Graphics	preparing for 3d graphics: interfacing to opengl	1995	6.1183374363232526	-8.587882571723815	3293189
3293632	EDA	an improved cellular genetic algorithm with evolutionary rules for 3d animation modeling design	2011	5.463206388882872	-8.613700625610674	3293659
3295542	Graphics	3d object reconstruction processing chain for extensible virtual spaces	2012	5.810767346718043	-9.153110052883644	3295569
3296032	Vision	flame dance	2009	5.684562747639418	-9.713016627776456	3296059
3296391	EDA	design tools: imaging, vector graphics and design evolution.	2012	6.208896555952784	-8.179450427301843	3296418
3296446	Visualization	modeling virtual driving environment for a driving simulator	2011	5.08177065669674	-9.161365369202523	3296473
3298310	Visualization	three-dimensional modeling for virtual relic restoration	2000	5.615009794902133	-8.764302420887033	3298337
3298720	Graphics	stylized stereoscopic 3d line drawings from 3d images	2018	5.843467640403928	-9.028408770293026	3298747
3300195	HCI	fuzzy similarity matching method for interior design drawing recommendation	2016	4.538716005763503	-9.09157933824212	3300222
3302516	AI	a synthetic mind model for virtual actors in interactive storytelling systems	2009	5.339295917030936	-8.274944767925952	3302543
3302963	Graphics	silent hill: making of	2007	5.796604613394463	-9.271425626215548	3302990
3303139	Robotics	focal points and intuitive 3d controls for human kinematics visualisation	2003	6.279942727866709	-8.825165227047426	3303166
3303403	HCI	software for visualization, analysis, and manipulation of laser scan images	1997	6.221426408888882	-8.316947699799442	3303430
3303924	HCI	three, the pony	2014	5.743321165218003	-9.366109862384278	3303951
3303981	Graphics	natural lighting and medieval glass - scientific data acquisition, methodology and physically based rendering	2012	6.111851043391947	-8.291966988359011	3304008
3304004	Visualization	a shape synthesizer	1997	6.256349270707357	-9.415315947814683	3304031
3305123	AI	an affective decision making agent architecture using emotion appraisals	2002	5.0409773636208	-7.9490451456428834	3305150
3305515	Graphics	data acquisition and simulation of natural phenomena	2011	6.180146420886611	-8.074829447641418	3305542
3306635	HCI	a quantitative technique for analysing robot-human interactions	2002	4.6148502978202135	-9.09990042542564	3306662
3306935	AI	crowd modelling for military simulations using game technology	2005	4.649801717725207	-8.43649433972964	3306962
3307411	Robotics	procedural semantics for autonomous robots - a case study in locative spatial language	2015	4.8957774091992805	-8.362259845476231	3307438
3307455	ML	application of an island model genetic algorithm for a multi-track music segmentation problem	2013	5.094007287177114	-8.692877940247165	3307482
3307507	AI	automatic composition of music by means of grammatical evolution	2002	5.641847701969893	-8.783183267456332	3307534
3307719	AI	corpus-based recombinant composition using a genetic algorithm	2012	5.382629434553942	-8.503000354109062	3307746
3307974	AI	genetic evolution of l and fl-systems for the production of rhythmic sequences	2012	5.3643251435825565	-8.501641867945636	3308001
3308103	AI	interactive evolution of 8-bit melodies with genetic programming towards finding aesthetic measures for sound	2012	5.5209880333767645	-8.318444327310694	3308130
3310541	HCI	integrating cumulative context into computer games	2008	5.076033731097568	-8.22874790296961	3310568
3311639	HCI	unconstrained vs. constrained 3d scene manipulation	2001	5.709857306010906	-9.65038199607851	3311666
3312519	Logic	how do viewers spontaneously segment animated diagrams of mechanical and biological subject matter?	2012	6.0734393017948785	-8.330054239777214	3312546
3312865	Graphics	recapturing the lost colors of basara: abbreviated version	2005	6.061080000603262	-8.425050031078234	3312892
3313220	Robotics	magic squares and aesthetic events	2013	6.098148372756965	-8.74035670496529	3313247
3313441	AI	libratus: the superhuman ai for no-limit poker	2017	4.378464968922391	-7.948142849935098	3313468
3313782	Visualization	virtual reality visualization for photogrammetric 3d reconstructions of cultural heritage	2014	6.023513211953085	-9.455882300265383	3313809
3313874	AI	high-level language to build poker agents	2013	4.426379581152752	-8.373018211056587	3313901
3313928	HCI	irin: micromontage in graphical sound editing and mixing tool	2004	6.257395432479007	-9.186586496971037	3313955
3315902	Graphics	colour graphics and three-dimensional scene synthesis in image display	1987	6.237412051351557	-8.740755545157514	3315929
3316148	SE	event normalization methodology for computer game environment simulation	2009	5.355368948151881	-8.368502667937424	3316175
3316394	Robotics	fuzzy cluster descriptor extraction for flexible organization of documents	2011	5.569022622236985	-7.920515142733183	3316421
3316480	HCI	engaging outdoor user experience based on high fidelity 3d terrain representation on mobile apps	2013	5.915430441347227	-9.216360091335279	3316507
3316721	Visualization	interactive medical 3d-simulations by means of stereoscopy and standard hardware	2001	5.327388196710998	-9.768719972460133	3316748
3319669	HCI	multi-edge decimation in multi-modal 3d collaborative applications	2009	6.0830442035627055	-8.749806464994057	3319696
3319843	EDA	a graph-based algorithm for extracting units and loops from architectural floor plans for a building evacuation model	2003	5.912285667731995	-8.138046054156714	3319870
3320087	Graphics	a survey of image-based techniques for hair modeling	2018	5.727677806938836	-9.403648652819546	3320114
3321360	AI	agents in annotated worlds	1998	4.8779739984247765	-8.949077461407681	3321387
3322065	Robotics	biological, biomimetic and sociological aspects of human-robot interaction in work environments	2016	5.11510768837439	-7.8945100191892035	3322092
3322106	HCI	crafting game-models using reactive system design	2008	5.770374122915108	-8.437683624211731	3322133
3322180	Visualization	viewing geometric protein structures from inside a cave	1996	5.883342934826852	-9.243334361237142	3322207
3322422	Visualization	rendering, visualization and rasterization hardware (eurographics'91 workshop)	1993	5.9518621062688855	-8.320674654715445	3322449
3323276	HCI	towards creative design using collaborative interactive genetic algorithms	2009	5.6386183041246944	-8.111877997023944	3323303
3323590	Graphics	highly stylised animation	2007	5.428798201275579	-9.287024229532	3323617
3324820	AI	emotion-based framework for multi-agent coordination and individual performance in a goal-directed environment	2007	4.450769760398399	-8.520804915867629	3324847
3325139	HCI	player experience extraction from gameplay video	2018	5.25540541287262	-8.553190233689755	3325166
3325413	HCI	virtual world builder toolkit	2010	5.772450063490028	-8.715570999197759	3325440
3325415	Visualization	rendering of large and complex urban environments for real time heritage reconstructions	2001	6.106439539566512	-8.704688936110642	3325442
3326069	HCI	towards pattern-based mixed-initiative dungeon generation	2017	5.724232264558233	-8.237522058359831	3326096
3326251	AI	sidane: towards the automatic analysis of football tactics and actions	2015	4.639725500502804	-7.968072435662947	3326278
3328132	Visualization	multisensory experience with images	2014	5.606025215113985	-9.622942851274576	3328159
3328213	AI	regeneration of real objects in the real world	2002	5.473417239702146	-9.435139471111015	3328240
3328705	AI	artificial art made by artificial ants	2008	5.0975278882356125	-8.164613100076046	3328732
3328873	AI	from paper to machine: extracting strokes from images for use in sketch recognition	2008	6.129952465271892	-9.557145106534737	3328900
3331665	Visualization	visualizing and experiencing harmful gases in the vr environment	2010	5.656489747532864	-9.043114616298944	3331692
3331767	Graphics	fine arts edutainment - the amateur painter	2008	5.915002972130699	-9.528259133302036	3331794
3331820	Robotics	scalable perception for bdi-agents embodied in virtual environments	2011	4.7282576888631445	-8.746490556600495	3331847
3332063	Visualization	cupholder: a multi-person interactive high-resolution workstation	2006	6.252426841847112	-9.626211704901204	3332090
3332086	AI	roles of an intelligent tutor agent in a virtual society	2005	5.005464708170695	-8.342780796791077	3332113
3332189	AI	elms: an environment description language for multi-agent simulation	2004	4.866075190235586	-7.90576353520066	3332216
3333129	Graphics	precise 3d recording for finite element analysis	2015	6.051438123478182	-8.16043068022589	3333156
3333367	Robotics	gipsi: an open source/open architecture software development framework for surgical simulation	2004	6.095445106173581	-8.88745400982373	3333394
3333630	HCI	end-user programming of 3d virtual agents	2004	4.83214904920522	-9.042917958178336	3333657
3334185	Graphics	frankengan: guided detail synthesis for building mass models using style-synchonized gans	2018	5.138536405503007	-9.170232260520525	3334212
3334599	Vision	perception of parameter variations in linear fractal images	2010	5.76151005141486	-9.21313320015934	3334626
3334628	Graphics	visual immersive haptic rendering on the web	2008	5.787395147252405	-9.706977967466417	3334655
3334757	EDA	gaming simulation design for individual and team situation awareness	2013	4.948797235902497	-7.952885859611273	3334784
3334847	HPC	a survey on projector-based pc clustered distributed-rendering large screen displays and techniques	2007	6.304031853415138	-9.355970807871518	3334874
3335164	NLP	dynamic game level generation using on-line learning	2007	4.409217271436094	-8.246987677285452	3335191
3335194	HCI	turtle's navigation and manipulation of geometrical figures constructed by variable processes in a 3d simulated space	2007	5.8585334134544516	-8.43901871396642	3335221
3335323	Robotics	interactive texture design using iec framework	2007	5.441955403308935	-9.575150183627963	3335350
3335863	Graphics	softcel - an application of raster scan graphics to conventional cel animation	1979	5.8331962779883	-9.416552392380833	3335890
3337184	Vision	development of the estimate of computer assistance program for checkmark position by different bend radius of curvature of different lanes in 4x100m relay	2014	4.746060810205943	-7.921162972072362	3337211
3337915	Graphics	the art of knitted fabrics, realistic & physically based modelling of knitted patterns	1998	5.471407482597287	-9.35082421804024	3337942
3338064	AI	trace: a dynamic model of trust for people-driven service engagements - combining trust with risk, commitments, and emotions	2015	4.882783407380281	-8.348135767884349	3338091
3338577	AI	goal-based personalities and social behaviors in believable agents	1999	4.945612602155468	-8.248030941019577	3338604
3338595	Graphics	computational geometry for sculpture	2001	5.805154541302004	-8.847761653296235	3338622
3338611	Robotics	comics, robots, fashion and programming: outlining the concept of actdresses	2009	5.773173928361887	-8.092450861150185	3338638
3339310	HPC	evaluation of user-guided semi-automatic decomposition tool for hexahedral mesh generation	2017	5.882461173280381	-9.382640974724096	3339337
3339894	HCI	10.000 samurais in the war of sekigahara	2007	5.8584628795196165	-8.921033017692439	3339921
3339977	Vision	dense 3d point cloud generation from multiple high-resolution spherical images	2011	5.877713539938204	-8.044488014493469	3340004
3339996	AI	applying reinforcement learning for game ai in a tank-battle game	2009	4.424915225696303	-8.084237436706697	3340023
3340130	Graphics	renderbots-multi-agent systems for direct image generation	2005	5.504755002600981	-9.1616025871141	3340157
3340530	AI	simulation-based story generation with a theory of mind	2008	5.621169127260389	-7.897450458914423	3340557
3341736	Robotics	context dependent extraction of volumetric features	1997	5.3906528255182495	-7.905282254767123	3341763
3341875	HCI	cellular music: an interactive game of life sequencer.	2018	5.820861229325446	-8.679341861590489	3341902
3341973	AI	an analysis of artificial intelligence techniques in multiplayer online battle arena game environments	2016	4.527994877901463	-8.303702610729621	3342000
3342114	ML	a biologically-parameterized feather model	2002	5.8752060263392725	-8.899800396367361	3342141
3342442	Visualization	the design of a graphics engine for the development of virtual reality applications	2008	6.183842655677051	-9.618660426442345	3342469
3342524	Vision	model-based color manipulation	2007	5.443598865483957	-9.413096153511402	3342551
3342561	HCI	evolutionary design of dynamic swarmscapes	2008	5.351214954789986	-8.339591666915304	3342588
3346098	HCI	can't see the forest: using an evolutionary algorithm to produce an animated artwork	2009	5.650134790914223	-8.823966761700596	3346125
3346763	HCI	3d wayang kulit: traditional shadow puppetry meets modern display technology	2016	5.463422811882733	-9.761149188176585	3346790
3347142	HCI	teaching agent systems' design using 3d interactive computer games	2006	4.528803395407495	-8.390527388074366	3347169
3347153	Visualization	thinning trainer based on forest-growth model, virtual reality and computer-aided virtual environment	2018	6.189477320061452	-9.544875637793458	3347180
3347731	HCI	large-scale rapid-prototyping with zometool	2016	5.612560158499132	-9.712325650920807	3347758
3347887	Robotics	constructive roof geometry	2014	5.854359078856648	-8.874563684087631	3347914
3349569	HCI	innovative virtual reality application for road safety education of children in urban areas	2015	4.569935516161434	-9.49658120469802	3349596
3350546	Vision	virtual reef: a visualisation framework for marine simulation models	2003	5.245478434185434	-8.285864982429434	3350573
3350728	Visualization	figment: a basis for interactive virtual mannequin services	1998	4.921475098679403	-9.787766158186118	3350755
3352164	HCI	wall grammar for building generation	2006	5.857193702563932	-8.897000040874717	3352191
3352280	Vision	digital abstract images	2006	5.9165200192352785	-9.449558782248106	3352307
3352354	Vision	a graphics compiler for a 3-dimensional captured image database and captured image reusability	1998	5.542664060919209	-8.59110282506657	3352381
3352908	Graphics	"""universal capture: image-based facial animation for """"the matrix reloaded"""""""	2003	5.647608888889272	-9.546580500873599	3352935
3352957	HCI	design and evaluation of a rapid programming system for service robots	2016	4.549818537098647	-9.621973029869553	3352984
3352988	Robotics	emergent storylines based on autonomous characters with mindreading capabilities	2007	5.155104752499208	-8.555859209676939	3353015
3353648	AI	modelling video games' landscapes by means of genetic terrain programming - a new approach for improving users' experience	2008	5.166064182219149	-8.357616883302683	3353675
3354027	Graphics	3d virtual mosaics: opus palladium and mixed styles	2009	5.625494750087969	-8.985846588926337	3354054
3354156	HCI	procedural generation of parcels in urban modeling	2012	6.032799838042145	-8.594826030600716	3354183
3355101	ML	the use of distortion of special venue films	1998	5.446150251909605	-9.331300868051336	3355128
3355256	Graphics	interactive fractal compositions	2012	5.879216439510614	-8.795413508303799	3355283
3356198	AI	on the applicability of l-systems and iterated function systems for grammatical synthesis of 3d models	2003	5.632410963984842	-8.460965073380754	3356225
3356691	HCI	archidna: an interactive system for creating 2d and 3d conceptual drawings in architectural design	2009	6.212448223027039	-8.753134488707389	3356718
3356773	Graphics	aer: aesthetic exploration and refinement for expressive character animation	2005	5.22378905889971	-9.495832563990797	3356800
3356805	EDA	spin/drift: a real-time spatialized granular synthesis algorithm with particle system physics & behaviours	2013	5.6075576150960895	-8.879425462064454	3356832
3357088	AI	experiencing belugas: action selection for an interactive aquarium exhibit	2007	4.452951747938607	-8.822365196991056	3357115
3358055	ML	body of water	1957	5.584641129320972	-9.169322095587109	3358082
3358134	Vision	designing bots in games with a purpose	2015	6.163061180016069	-8.686234500555566	3358161
3358576	AI	exploring persian rug design using a computational evolutionary approach	2010	5.341134437617615	-8.071094037290175	3358603
3358718	Graphics	experimental system for visualization of the light load	2003	6.0515712878197405	-9.099817567280267	3358745
3358999	Visualization	supporting the creation of dynamic, interactive virtual environments	2007	6.009028302915549	-8.840280948702748	3359026
3359589	Visualization	sequencejuxtaposer: fluid navigation for large-scale sequence comparison in context	2004	5.715018508472624	-9.412289994632037	3359616
3360342	AI	a multiagent architecture for 3d rendering optimization	2010	5.281204817992545	-8.980370729764783	3360369
3360518	Robotics	konrad and suse, two robots guiding visitors in a university building	2012	4.536263938409425	-9.734830891181396	3360545
3360645	Robotics	fusing autonomy and sociability in robots	1997	4.476000997923161	-8.868733947750798	3360672
3360655	HCI	adaptive hyperinstruments: applying evolutionary techniques to sound synthesis and performance	2002	5.338134428726495	-8.76878800524446	3360682
3362051	HCI	toward an understanding of trust repair in human-robot interaction: current research and future directions	2018	4.896678914682641	-8.1670001498409	3362078
3362143	Robotics	improving extrinsically motivated developmental robots through intrinsic motivations	2016	4.67241065155624	-7.945067438480934	3362170
3363576	Graphics	painterly effects rendering with focus based level of detail	2007	5.860349301895759	-8.60157476094713	3363603
3363709	Graphics	design for interactive performance in a virtual laboratory	1990	6.123313232249288	-9.725949747922243	3363736
3363828	Graphics	ancient polychromy: study and virtual reconstruction using open source tools	2015	6.230448258830352	-8.303509148302924	3363855
3364263	Graphics	towards real time virtual human life simulations	2001	4.5979927536179055	-9.010042226361918	3364290
3364917	HCI	shape modeling with sketched feature lines in immersive 3d environments	2010	6.177554944267027	-9.65342146929652	3364944
3365170	Robotics	celesstin: cad conversion of mechanical drawings	1992	6.0092017309894725	-8.463698916611966	3365197
3365383	Graphics	from scene to screen: colour accuracy in computer simulations used for psychophysics	2004	5.503430764122154	-8.963971761703688	3365410
3365438	Graphics	towards real-time procedural scene generation from a truncated icosidodecahedron.	2015	5.459179431169575	-9.647719502292937	3365465
3365920	Visualization	a realistic lighting model for computer animators	1990	5.574346259263158	-9.122263920571877	3365947
3365973	AI	scale based model for the psychology of crowds into virtual environments	2013	4.808286220130921	-8.220686657869352	3366000
3366356	HCI	art-directing disney's tangled procedural trees	2010	5.7798256953697145	-9.090346147717126	3366383
3366368	Graphics	furtility: robust hair styling	2015	5.826378284333392	-9.123026840941732	3366395
3367059	Visualization	a user-friendly texture-fitting methodology for virtual humans	1997	5.986185448158505	-8.759591134518747	3367086
3367076	Graphics	stylized highlights for cartoon rendering and animation	2003	5.459402898978619	-9.688414131639796	3367103
3367299	Robotics	taskability graph: towards analyzing effort based agent-agent affordances	2012	4.966926783294079	-8.092126733450721	3367326
3367632	AI	smart objects for attentive agents	2003	5.3530570086563465	-9.529108239619024	3367659
3368845	AI	simulating mutual support networks of human and artificial agents	2018	5.116872372688426	-8.190098801755067	3368872
3368958	Visualization	exploring the design space of multiscale 3d orientation	2010	6.231360603551103	-8.539183496666467	3368985
3369605	Robotics	ineffabelle - an environment for interactive computer graphic simulation of robotic applications	1986	5.85019723630673	-9.14263549325912	3369632
3370592	AI	implementation of modeling hair from multiple views	2005	5.064758394473006	-9.560578519227914	3370619
3370770	AI	intelligent virtual agents	2001	4.7275191046632346	-8.351507146017973	3370797
3371357	Graphics	camera control in computer graphics	2008	5.4692802730769206	-9.699568312310372	3371384
3371482	Graphics	a system for application-independent time-critical rendering	1994	5.714078266031	-8.893729099478998	3371509
3372006	Graphics	realistic modeling and rendering of plant ecosystems	1998	5.766483557605642	-8.455303815681653	3372033
3372914	Graphics	3d graphics developments and research at inesc.norte	1990	6.0536411863315776	-8.771976148572755	3372941
3373422	Visualization	depth representation method by color tone for 3d graphics modeler	2011	5.7626914510118015	-9.439839183130953	3373449
3374257	HCI	hangar talk survey: using stories as a naturalistic method of informing threat and error management training	2013	4.958695440878089	-9.152543028828	3374284
3375250	Graphics	situated color aesthetics by evolutionary computation	2017	5.559211321834861	-7.959237971193421	3375277
3375651	ML	revolution in health and wellbeing	2015	4.964407157513284	-8.671419245222943	3375678
3376504	AI	experiments in artificial theory of mind: from safety to story-telling	2018	4.379338522812687	-8.47878026048509	3376531
3376739	Graphics	consistent presentation of interactive virtual objects in real space with 3d markers - interactive virtual interior simulation	2003	5.902343206024402	-9.395219428738606	3376766
3376986	HCI	pavlov: programming by stimulus-response demonstration	1996	5.7353160890237165	-9.351283737099006	3377013
3377332	HCI	creative flavor pairing: using rdc metric to generate and assess ingredients combination	2017	5.582267651375752	-8.066373966550666	3377359
3378866	Robotics	aiplayer: a platform of intelligent simulation of virtual human in virtual environment	2007	4.7690947684140355	-8.716298426338112	3378893
3379280	HCI	listening the photos	2010	5.074969334660372	-9.691584248358929	3379307
3379327	Graphics	research on the three-dimensional modeling of mine surface plant and laneway	2011	5.969728946147968	-8.410842820097033	3379354
3380514	Robotics	the industrial robot as intelligent tool carrier for human-robot interactive artwork	2014	5.363593383688848	-9.549014239382203	3380541
3381532	SE	virtual reality in a shipbuilding environment	2015	4.538160200221278	-9.800557745176096	3381559
3381649	Graphics	computer generated clay animation	2002	5.565441114589842	-9.220540884861297	3381676
3382630	Robotics	evolutionary image synthesis using a model of aesthetics	2006	5.304787024519701	-8.476509903601235	3382657
3382701	AI	a human-in-the loop approach for representing populations in virtual and constructive simulations	2010	4.6027425801534525	-8.433794354140895	3382728
3382840	Vision	design of water transportation story for grand canal museum based on multi-projection screens	2007	5.790974216556992	-9.11833748554712	3382867
3382920	NLP	automatic generation and evaluation of recombination games	2010	4.674270629186752	-7.969142531362567	3382947
3383269	Graphics	enhancing x3dom declarative 3d with rigid body physics support	2014	6.125260164272469	-8.879992660302538	3383296
3383394	ML	an empirical exploration of a definition of creative novelty for generative art	2009	5.303283887483191	-7.8962258538562065	3383421
3384609	Graphics	reality-augmented virtuality: modeling dynamic events from nature	2004	5.425386779629914	-9.515813545411037	3384636
3385040	AI	gismo: an application for agent-based composition	2005	5.703559602100463	-8.105288389801727	3385067
3385073	AI	a knowledge-based user interface for the interactive design of three-dimensional objects	1988	5.862973434697392	-8.727515150104223	3385100
3385410	Robotics	painting based cubic vr also for cave and spherical screen film	2013	5.776999842571378	-9.272876553584068	3385437
3386950	Graphics	multiple-process procedural texture	2016	5.15117574284947	-8.236335834504812	3386977
3387517	Visualization	photorealistic rendering of mixed reality scenes	2015	5.37897309540793	-9.720647563184055	3387544
3388651	AI	intelligent agents in computer games	1999	4.405282353354113	-7.899141608122653	3388678
3388977	Vision	virtual humans as centaurs: melding real and virtual	2016	5.384100607770241	-9.75452988381394	3389004
3389030	Visualization	virtual photogrammetry	2016	6.099468459389636	-9.763357248101864	3389057
3390080	Graphics	animated graphics and computer simulation	1987	6.2520646310311765	-8.944386655434151	3390107
3390704	Visualization	three-dimensional volume managers replacing window managers in augmented reality application paradigm	2015	6.182382761320514	-9.588699583239178	3390731
3392339	Visualization	a vsm-based and quality-aware query processing protocol for wireless sensor networks	2007	5.7287962999981366	-7.983014465194116	3392366
3392508	AI	interaction-based authoring for scalable co-creative agents	2015	5.505212258410354	-8.382821044531138	3392535
3393299	Robotics	modular dynamic virtual-reality modeling of robotic systems	1999	4.432976244396449	-8.821109498802628	3393326
3393668	AI	a camera engine for computer games: managing the trade-off between constraint satisfaction and frame coherence	2001	4.582210964979571	-9.764284249244312	3393695
3393916	HCI	estimating and predicting average likability on computer-generated artwork variants	2015	5.744799448000988	-8.282385055255087	3393943
3394011	AI	identifying catastrophic failures in offline level generation for mario	2012	4.67303207274944	-8.112580189689218	3394038
3394329	Robotics	robotic dynamic sculpture: architecture, modeling, and implementation of dynamic sculpture	2014	5.287598499477712	-9.297320990289423	3394356
3394409	Graphics	new reflection transformation imaging methods for rock art and multiple-viewpoint display	2006	6.276806215851793	-8.337320141168616	3394436
3394457	OS	high performance x servers in the kdrive architecture	2004	6.305585250735577	-8.89636140126174	3394484
3395357	Robotics	cognitive robots: perceptual associative memory and learning	2005	4.514052640938088	-8.088038084543264	3395384
3395827	Vision	crafting the vision effect: an interactive, particle-based hologram for epic	2013	5.849136314200638	-8.822855146328608	3395854
3395829	Robotics	dialogue-based supervision and explanation of robot spatial beliefs: a software architecture perspective	2018	4.5015557445348495	-8.8406785689144	3395856
3395989	HCI	the light show: flashing fireflies gathering and flying over digital images	2018	4.473692159116136	-8.099818602869961	3396016
3396815	HCI	movengine - developing a movement language for 3d visualization and composition of dance	2014	5.6381234622049865	-9.093707288172524	3396842
3397355	HCI	the physical model as metaphor for musical creation: 'pico..tera', a piece generated by physical model	2002	5.808091192413598	-9.156008729538751	3397382
3398273	EDA	strategy of modeling and simulation for tujia brocade yarn	2017	5.7495144891543175	-9.25531602154902	3398300
3398746	HCI	robust and authorable multiplayer storytelling experiences	2011	5.440705907451731	-8.344312336118595	3398773
3399096	AI	incorporation of emotions in the orphibs' agent architecture	2015	5.1383635713082505	-8.574396286782967	3399123
3399346	Visualization	a virtual reality study on santa maria crater on mars	2013	6.12650924927431	-8.567313971188797	3399373
3399383	HCI	how do we stand on the big board?	1967	5.983430282906747	-9.69223117631434	3399410
3399859	Vision	from local to global illumination and back	1995	5.965068769344299	-8.086801646541069	3399886
3400155	Graphics	semantizing complex 3d scenes using constrained attribute grammars	2013	5.686962748222142	-7.986699871076055	3400182
3401130	HCI	game character ontology (gco) a vocabulary for extracting and describing game character information from web content	2017	5.820261510565023	-8.270382756684723	3401157
3401190	HCI	open source, modular, customizable, 3-d printed kinesthetic haptic devices	2017	4.9751867092220845	-9.689136014776944	3401217
3402105	Graphics	sketch-based interfaces for interactive computer graphics	2006	6.2129635928605795	-8.879901464751539	3402132
3403082	Graphics	data-driven optimization for modeling in computer graphics and vision	2013	5.712529743188669	-9.157626632144265	3403109
3403174	Robotics	sentient world: human-based procedural cartography - an experiment in interactive sketching and iterative refining	2013	5.4945129270519	-9.143949017292478	3403201
3403914	Visualization	a real time particle system for display of ship wakes	1990	5.781551515519465	-8.656454617478492	3403941
3404215	ML	a method of style discrimination of oil painting based on 3d range data	2001	5.438527500199882	-9.346668181792598	3404242
3404384	Vision	user interaction for image recolouring using £2	2017	5.40789549292406	-9.664003231360432	3404411
3404414	Visualization	integration of basic cad functions into a vr environment	1998	6.038294343062754	-9.101364679437475	3404441
3405008	Graphics	fully automatic, omnidirectional acquisition of geometry and appearance in the context of cultural heritage preservation	2015	6.031813369126124	-8.801608745190443	3405035
3405169	Robotics	simulation of human awareness control in spatiotemporal language understanding as mental image processing	2014	4.482195576409325	-9.199690733270996	3405196
3405306	HCI	the virtual twin: controlling smart factories using a spatially-correct augmented reality representation	2017	5.866952701978857	-9.665982422767637	3405333
3407574	Graphics	transportation interface facilities design using interactive high-level computer graphics	1987	5.743894199536856	-8.392953684692689	3407601
3407676	Visualization	mosis — multi-outcrop sharing & interpretation system	2017	6.078593722088287	-9.282303590767881	3407703
3407791	Robotics	behavior design of game character's agent	2010	4.656195024756976	-8.364626100237139	3407818
3408352	HCI	a visual programming model for user interface animation	1997	6.298256873113138	-8.870871088256973	3408379
3408447	Robotics	multimodal data fusion for sensitive scene localization	2019	5.3236473561303	-9.490640556096492	3408474
3408548	HCI	procedural haptic texture	2006	5.7132086620771165	-9.587601373520398	3408575
3408569	Graphics	introducing 3d cinematography [guest editors' introduction]	2007	4.9562695208436445	-9.686655260549623	3408596
3409255	Vision	thumbnail galleries for procedural models	2014	5.887981752411503	-8.901868856680569	3409282
3409510	EDA	integrated structural–architectural design for interactive planning	2017	5.736069582497303	-8.350016792645242	3409537
3409748	Graphics	smarter compositing with the kinect	2013	5.528916659163748	-9.757062673024961	3409775
3409873	Graphics	facade: modeling and rendering architecture from photographs and the campanile model	1997	5.735762947176642	-8.860157976355056	3409900
3410176	ECom	a mathematical model of game refinement and its applications to sports games	2015	4.712001579985701	-7.929997900947022	3410203
3410459	EDA	graphical modeling and calligraphic interfaces	2007	6.1734790237786035	-8.440258404971638	3410486
3411228	Vision	expressive image manipulations for a variety of visual representations. (manipulations d'image expressives pour une variété de représentations visuelles)	2009	5.311062878154505	-9.250760113088706	3411255
3411938	Visualization	study on behavior simulation of virtual object based physically attribute	2012	4.934070215081333	-8.737006058635764	3411965
3411974	Robotics	integrating building information modeling & cell-devs simulation	2010	5.60931477449542	-8.396874905491838	3412001
3413596	HPC	videostyler: multi-dimensional video computing for eloquent media interface	1995	5.4902013217531564	-9.051889908811342	3413623
3413854	HCI	feature-oriented writing process reproduction of chinese calligraphic artwork	2014	5.806527246559307	-9.562391163627254	3413881
3414793	AI	emotion and memory model for a robotic tutor as a social partner in a learning environment.	2017	4.876792911119133	-8.757156600438584	3414820
3414800	HCI	interactive rigging	2015	5.788452638285937	-9.530963837529397	3414827
3414805	EDA	interpretation of freehand drawings for mechanical design processes	1984	5.9344537378496085	-8.679106092422106	3414832
3414919	AI	navigating virtual agents in online virtual worlds	2008	4.421628548202928	-9.086111406428268	3414946
3415145	Graphics	chacra: an interactive design system for rapid character crafting	2014	5.349281943174659	-9.663985046348733	3415172
3415734	HCI	enformanga: interactive comic creation with deformation	2010	5.930486232540622	-9.595278194291401	3415761
3416005	AI	spotting the difference: identifying player opponent preferences in fps games	2012	4.626819953726057	-8.19427002745295	3416032
3416078	Vision	a novel parameter learning method of virtual garment	2006	5.068768483019995	-9.290080578788952	3416105
3416573	Graphics	is robust geometry possible? (panel)	1998	5.932988127734633	-9.053414551125117	3416600
3417244	Vision	star fields in 2d	2002	5.193452540226381	-9.509286413891576	3417271
3418151	HCI	a virtual world grammar for automatic generation of virtual worlds	2010	5.605988410398383	-8.670090116315171	3418178
3418872	AI	automatically moving between levels in artificial chemistries	2010	5.416298472394868	-8.41982132258906	3418899
3418952	Robotics	multi-sensor as-built models of complex industrial architectures	2015	5.925000232026532	-8.419491285659118	3418979
3419021	Visualization	advanced techniques for the visualization of 3d medical datasets	2006	6.2834337524005655	-8.390591777579004	3419048
3420872	SE	grammatical evolution of l-systems	2009	5.233052693102743	-8.037945755982362	3420899
3421903	AI	twig: a simple, ai-friendly, character world for believable agents	2009	5.637398623662883	-9.18475202119	3421930
3422055	HPC	image centric finite element simulation	2005	5.857823618184207	-8.825199127839257	3422082
3422219	Graphics	the wall of inspiration: a computer aided color selection system	2008	5.638236554399966	-9.729553472137182	3422246
3422466	HPC	piavca: a framework for heterogeneous interactions with virtual characters	2008	6.164789513164672	-9.669289968401113	3422493
3422735	Graphics	making faces : the facial animation, construction and editing system	1991	6.121461802613871	-8.2860762638752	3422762
3423720	Robotics	surgery scene representation in 3d simulation training sdk	2016	5.294120393950959	-9.80317348702146	3423747
3424550	HCI	24x7@phl: codify	2010	5.87826701096104	-9.032446482028757	3424577
3425505	HCI	a dramatised actant model for interactive improvisational plays	2001	5.236079054716631	-8.708982724264851	3425532
3425707	Graphics	a note on visualizing the omega prism	1996	6.284548052467665	-7.916580140568148	3425734
3426424	Graphics	a fresh approach to vector graphics: technical perspective	2013	5.826610449462796	-8.816572475198585	3426451
3426646	Graphics	towards a unified approach to 3d environment capture and rendering	2004	5.911623802915022	-8.632151011393772	3426673
3427085	AI	caa: a context-sensitive agent architecture for dynamic virtual environments	2005	4.412396533375425	-8.345876847046263	3427112
3427224	Vision	immersive face validation: a new validation technique for agent-based simulation	2012	5.2158987197771465	-8.606749918781134	3427251
3428511	HCI	the use of reality models in augmented reality applications	1998	5.936822381821027	-9.19749467786574	3428538
3428993	HCI	what art can tell us about the brain	2012	5.739278858613654	-9.729417690485391	3429020
3429004	Graphics	a study of virtual-form modeling system using unexpectation	2004	6.118165540888791	-9.447551877034208	3429031
3429925	AI	a six dimensional paradigm for generating emotions in virtual characters	2003	4.7549812120286585	-9.018672357313257	3429952
3430192	HCI	generation of miro's surrealism	2016	6.208572818480447	-8.925712006868682	3430219
3430614	HCI	ice as an interactive visualization material: a design space	2018	6.211672112698469	-8.67706784560691	3430641
3430718	Graphics	sketch-based search and composition of 3d models	2008	5.782406545019263	-9.405623378564373	3430745
3431125	Visualization	an explorable immersive panorama	2012	6.035854359195771	-9.470993073932519	3431152
3432510	Graphics	style compatibility for 3d furniture models	2015	5.1818050482131985	-9.558421399036584	3432537
3433769	Robotics	the design of linetool, a geometric editor	1988	6.3049574994524145	-8.346039374335962	3433796
3433878	HCI	polka dot: the garden of water spirits	2013	5.953284774224353	-9.665807443270582	3433905
3434028	HCI	managing thousands of assets for the prince of persia city of alamut	2010	5.968900300554612	-8.807405383227346	3434055
3434308	AI	case-based plan diversity	2010	4.521773708160263	-7.9312141033900305	3434335
3434439	Visualization	utilizing desktop virtual reality to enhance visualization: applied projects from the department of computer graphics	1999	5.9423883942703375	-9.535400780812887	3434466
3434495	Theory	animated cartoon design with a crt	1972	6.006436702579492	-8.693720267414454	3434522
3435719	Graphics	cape flora	1997	6.095501806076567	-8.248685943701322	3435746
3436068	AI	mind model for multimodal communicative creatures and humanoids	1999	4.821552093252556	-8.914322540733231	3436095
3436250	SE	veritas approach for parameterization of psychological and behavioral models	2012	4.835235914563712	-8.125851410102348	3436277
3436612	HCI	mixed-initiative photo collage authoring	2008	6.1524099821125615	-9.340161286446232	3436639
3436962	NLP	a machine learning approach to two-voice counterpoint composition	2007	5.394685545226072	-8.255076727687676	3436989
3437050	Visualization	finding events in a sea of bubbles	1971	5.923400385793661	-8.884108656653655	3437077
3437494	DB	the 2004 benjamin franklin medal in engineering presented to robert e. newnham	2005	4.527264802012415	-9.534590359106772	3437521
3437553	Robotics	crowdsourced coordination through online games	2016	4.6844578898709806	-8.37460246026064	3437580
3437665	AI	simulating socially intelligent agents in semantic virtual environments	2008	5.047229467894184	-8.667742891703718	3437692
3437815	AI	ai for herding sheep	2010	4.556322697417643	-8.387245344682254	3437842
3437858	Robotics	multi-agent platform for development of educational games for children with autism	2009	4.739152106547925	-8.270155066894487	3437885
3438052	Visualization	experiences in driving a cave with ibm scalable graphics engine-3 (sge-3) prototypes	2005	5.5792791020366375	-9.795426755248313	3438079
3438680	Graphics	the virtual cinematographer: a paradigm for automatic real-time camera control and directing	1996	6.2401550181157015	-9.57326492460328	3438707
3439030	AI	an agent that learns to support users of a web site	2004	5.430058923164613	-8.80773141981777	3439057
3440042	AI	grounding the meaning of words through vision and interactive gameplay	2015	4.7707128388298035	-8.611219922586479	3440069
3440931	Visualization	coloured text pixel with tile based methods for computer graphics studies of symmetric patterns	2004	6.02666199940262	-8.184485773830815	3440958
3440951	HCI	living poetry	2015	5.919802293438098	-8.713316980327862	3440978
3441995	HPC	real-time multi-view grid map-based spatial representation for mixed reality applications	2018	5.5825697781341015	-9.804270067176848	3442022
3442026	Networks	"""fairness properties for collaborative work using human-computer interactions and human-robot interactions based environment: """"let us be fair"""""""	2014	4.528558905918216	-9.284043059611816	3442053
3442281	Visualization	modelling selective visual attention for autonomous virtual characters	2011	4.713761698226828	-9.211528885578103	3442308
3442499	Graphics	a practical and controllable hair and fur model for production path tracing	2016	5.71563036364402	-8.883330552638375	3442526
3443514	Robotics	computer model for font legibility measurement	2017	6.250287119418919	-8.427119685762069	3443541
3443767	AI	society-centered design for socially embedded multiagent systems	2004	4.868831229908544	-8.55901264322471	3443794
3443877	Robotics	towards a synthetic tutor assistant: the easel project and its architecture	2016	4.525833661116758	-9.013247421584293	3443904
3444297	Graphics	physics-based characters	2011	5.817762767374284	-9.186737529647452	3444324
3444421	Visualization	motion adaptation based on character shape	2008	6.140368663568241	-9.479893450653844	3444448
3444560	Graphics	interactive generation of realistic facial wrinkles from sketchy drawings	2015	5.336858801189846	-9.518203068795607	3444587
3444993	AI	a computational cognitive model of mirroring processes: a position statement	2013	4.70459735424405	-8.187021540527658	3445020
3445143	Graphics	from a calm puddle to a stormy ocean: rendering water in uncharted	2012	5.704688257589604	-8.91327458801067	3445170
3446094	HCI	baap: a behavioral animation authoring platform for emotion driven 3d virtual characters	2010	5.07704104812809	-8.633672962610142	3446121
3446106	EDA	automated product concept design: unifying aesthetics and engineering	1993	5.982505017335542	-9.188522369687623	3446133
3446240	EDA	prospective analysis for cad-fem integration and other product views	2009	5.131695678159791	-7.987367283486762	3446267
3446505	AI	panormo: an emo-dramatic tour guide	2008	4.909707068045909	-8.949739097888518	3446532
3446721	HCI	intelligent visualization in a planning simulation	2001	6.09141338736482	-8.6080288697293	3446748
3447362	Graphics	modeling of ecosystems as a data source for real-time terrain rendering	2001	6.1131488986396025	-8.203716634897942	3447389
3447379	HCI	photorealism and non-photorealism in virtual heritage representation	2003	6.17135012348119	-9.408656181024648	3447406
3447969	Graphics	a display device abstraction for virtual reality applications	2001	6.095867421016947	-9.52972702049541	3447996
3447984	HCI	human-agent teamwork in collaborative virtual environments	2014	4.795583145113847	-8.582252888154535	3448011
3448557	Robotics	authoring and execution environments for multimedia applications featuring robotic actors	2001	6.274969915665468	-9.268165334621996	3448584
3448752	Visualization	light simulation in a distributed driving simulator	2006	5.5399721925819145	-9.482472314660107	3448779
3449733	NLP	paper wrapping, using connectivity among paper faces	2012	5.950916686531218	-8.919739713402457	3449760
3450809	HCI	creating choreography with interactive evolutionary algorithms	2011	5.078661296805629	-9.193900262653877	3450836
3451228	AI	tutorial i: video game description language (vgdl) and the challenge of creating agents for general video game playing (gvgp)	2015	4.4123230615563855	-7.985171135800783	3451255
3451706	AI	a continuum model for simulating crowd turbulence	2014	5.032074484924181	-8.57979534572437	3451733
3453126	Graphics	taxonomy of digital creatures: interpreting character designs as computer graphics techniques	2005	5.647270272926615	-9.460012273014852	3453153
3453235	HCI	simulating a virtual fisheye lens for the production of full-dome animations	2007	5.5701381149979605	-9.806196104818211	3453262
3453330	Graphics	simulating believable crowd and group behaviors	2010	5.029227279737548	-9.073782286085413	3453357
3454429	Graphics	designing an interaction with an octopus	2016	5.650150669386142	-9.661147190129975	3454456
3454684	Vision	beyond the kodak image set: a new reference set of color image sequences	2013	4.7458107767977165	-9.14738883135878	3454711
3454872	AI	evolution of emergent behaviors for shooting game characters in robocode	2004	5.161417531428525	-8.246998811472205	3454899
3454988	Graphics	driving motion control by motion capture using cg	2007	5.556102920512627	-9.752702660783203	3455015
3455029	Graphics	positioning and animating human figures in a task-oriented environment	1985	5.655353857438924	-9.450861902497726	3455056
3455173	Graphics	a system of 3d hair style synthesis based on the wisp model	1999	4.986014054947822	-9.67798392142699	3455200
3455356	AI	towards using first-person shooter computer games as an artificial intelligence testbed	2005	4.429037090241647	-8.21334352576203	3455383
3455425	Visualization	innovation of visualized interactive tools for learning molecular simulation curriculum	2010	5.327492192736633	-8.657816804510942	3455452
3455574	Visualization	architectures for real-time volume rendering	1999	6.261025055188327	-8.398986940484843	3455601
3455780	HCI	character workflow of final fantasy xv	2016	5.774370213770566	-9.412227332305818	3455807
3455904	Theory	bio-inspired computational algorithms in educational and serious games: some examples	2016	4.7159805507993635	-8.152518532234595	3455931
3456444	Robotics	developing adaptive agents situated in intelligent virtual environments	2014	4.589295404251863	-8.976638464979533	3456471
3456845	HPC	transforming still images	1999	6.0709496548198425	-9.701839288402274	3456872
3456882	AI	using emotional intelligence in training crisis managers: the pandora approach	2013	4.7416469933435454	-8.366656293937334	3456909
3457053	Visualization	authoring and execution environments for robotic performanc	2003	6.207414771181622	-9.186462530277348	3457080
3457653	Graphics	a behavioral interface to simulate agent-object interactions in real time	1999	6.010231489342263	-9.488664306443626	3457680
3457764	Graphics	perception-based painterly rendering: functionality and interface design	2006	5.9967997644130095	-9.531923703121038	3457791
3457864	Mobile	displaying images on mobile devices: capabilities, issues, and solutions	2002	5.443698935354113	-9.395006609580458	3457891
3457960	Graphics	evolving approximate image filters	2009	5.883330136055968	-8.945499372000588	3457987
3458784	DB	managing conversational streams by explorative mind-maps	2010	5.028512912533398	-8.351123596602111	3458811
3458972	Robotics	emergent effects in massive agent swarms in real-time game environments	2013	5.091748822030094	-8.487657596776662	3458999
3460964	Graphics	fresdam system for design of aesthetically pleasing free-form objects and generation of collision-free tool paths	1992	5.2674575050271555	-9.568650504322155	3460991
3461143	AI	agent-based modelling and simulation for lecture theatre emergency evacuation	2017	4.615210944379358	-8.832531488421331	3461170
3461526	Embedded	the unlock project: a python-based framework for practical brain-computer interface communication “app” development	2012	4.87543995643626	-9.703728380608348	3461553
3462648	AI	believable and effective ai agents in virtual worlds: current state and future perspectives	2012	4.600258922472637	-8.31176641890343	3462675
3463120	Graphics	interactive technical illustration	1999	5.476179363246745	-9.427991764391916	3463147
3463789	AI	topological enumeration heuristics in constraint-based space layout planning	1998	5.800570361765856	-8.129102105234793	3463816
3464482	Visualization	an open-source c sharp library based on opengl for stereoscopic graphic applications development	2011	5.984592293845348	-9.527163859314657	3464509
3464792	Graphics	sketchpose: artist-friendly posing tool	2004	5.406539696041625	-9.733850845991302	3464819
3465045	Graphics	the pdi crowd system for antz	1998	5.313274820776366	-9.470569705453073	3465072
3465195	EDA	a new design concept: 3d to 2d textile pattern design for garments	2017	5.672638626189017	-9.532994748496076	3465222
3465406	Robotics	an emerging interactive 3d architectural design walkthrough system for industrial hotel builders	2018	5.6391260012703	-9.375465105474744	3465433
3465408	Robotics	a new generation of intelligent punching environment for computerized embroidery	1994	5.816941422059508	-8.704145466092031	3465435
3466047	HCI	video as an image data source: efficient representations and applications	1995	4.53516859130063	-9.7683313625952	3466074
3466353	HCI	developing interactive embodied characters using the thalamus framework: a collaborative approach	2014	5.212101555070925	-8.955592122320574	3466380
3466525	Security	the magic of rfid	2004	4.7060209034172145	-9.612350488060695	3466552
3466868	ML	assessing team strategy using spatiotemporal data	2013	4.620237338094171	-8.238582189049122	3466895
3468194	AI	the agent designer toolkit	2013	5.119261142092567	-8.49848271065611	3468221
3468315	Visualization	computer animation for visualizing terrain data	1989	6.156329124527191	-7.9012931322645406	3468342
3470469	Graphics	development and realization of a street driving simulator for virtual tour	2007	5.290215468225759	-9.060276544680104	3470496
3470905	HCI	a survey of perceptually motivated 3d visualization of medical image data	2016	6.2509866096336015	-8.413241768226289	3470932
3471315	AI	program structure and design	1995	4.680437130875033	-8.431742395201175	3471342
3472808	Graphics	vibes: bringing autonomy to virtual characters	2004	4.700914884302558	-9.143437487236149	3472835
3472998	HPC	semi-automatic generation of virtual reality environments for electric power substations	2015	4.463389028379345	-9.746812766778053	3473025
3474211	Robotics	effects of agent transparency and communication framing on human-agent teaming	2017	4.756802836333528	-8.455981977549099	3474238
3474873	Visualization	modeling and visualization of flower color patterns	2007	5.359082969906222	-9.530292424238251	3474900
3474981	NLP	the practical application of an artist's colour model as an alternative to cmyk	2003	5.914591763445332	-8.741213826271174	3475008
3476017	Graphics	real-time deformable models for surgery simulation: a survey	2005	4.9568550447573605	-9.596539550518113	3476044
3476064	Graphics	foreword to the special section on expressive 2014	2015	5.8450218692320615	-8.782826145998312	3476091
3476758	Graphics	superformula solutions for 3d graphic arts and cad/cam	2004	5.966558253168763	-8.809147833403989	3476785
3476783	AI	anticipatory model of musical style imitation using collaborative and competitive reinforcement learning	2006	4.79507828868987	-7.977994779427089	3476810
3477858	NLP	topleague and bundesliga manager: new generation online soccer games	2010	4.775445095895486	-8.860639379187129	3477885
3479819	HCI	dreamsketch: early stage 3d design explorations with sketching and generative design	2017	6.240420561653511	-9.241504689558562	3479846
3480090	HCI	physical digital access inside archaeological material	2017	6.153407987152972	-8.112105071936567	3480117
3480208	Visualization	everest: a virtual reality interface to program a teleoperated mission	1997	4.400855899903932	-9.666221426855586	3480235
3480318	Visualization	bottled sand movies	2006	5.679241235115384	-9.486834155753593	3480345
3480602	Visualization	color harmonization for augmented reality	2010	6.106537545370051	-9.261692063600071	3480629
3481320	AI	an emotion evolution based model for collective behavior simulation	2018	4.982223338529151	-7.98005278775362	3481347
3481862	Visualization	volume composition and evaluation using eye-tracking data	2010	5.961492870514022	-9.337901850981586	3481889
3482264	HCI	procedural generation of 3d caves for games on the gpu	2015	5.614320746954012	-9.181139117910169	3482291
3484980	Graphics	procedural natural systems for game level design	2010	5.837114727565056	-8.9153127751721	3485007
3485172	Vision	synthesizing feather textures in galliformes	1995	5.544468022848828	-8.513293411163719	3485199
3485198	HPC	application of bio-inspired methods in distributed gaming systems	2017	4.430700951775177	-8.325002788656576	3485225
3485982	AI	imitating the behavior of human players in action games	2006	4.440861956311236	-8.240754982332962	3486009
3486247	Robotics	op:sense — an integrated rapid development environment in the context of robot assisted surgery and operation room sensing	2011	6.103474337997827	-8.908545603041404	3486274
3486254	AI	emotional robotics: tug of war	2008	4.650177782092474	-8.545357194283051	3486281
3486285	Robotics	option and constraint generation using work domain analysis	2014	4.532804506552728	-8.068664426863847	3486312
3486702	Theory	tiṭal - asynchronous multiplayer shooter with procedurally generated maps	2016	4.576979638843298	-8.225307550721281	3486729
3486787	Robotics	applying image processing for rapid customization of multi-color nested pattern products	2010	5.809237458791952	-9.047043820281306	3486814
3487016	AI	modeling human behavior for virtual training systems	2005	4.88025582681242	-8.506351081618492	3487043
3487844	HCI	drawing and surface: freehand architectural drawing mediated by digital	2013	6.043100079097068	-8.527239559770555	3487871
3488737	HCI	strange beta: an assistance system for indoor rock climbing route setting using chaotic variations and machine learning	2012	4.7265524773377265	-8.046824106289316	3488764
3489909	AI	fidelity and complexity of standing group conversation simulations: a framework for the evolution of multi agent systems through bootstrapping human aesthetic judgments	2012	4.465912513615376	-8.437960677177838	3489936
3490135	Graphics	towards a laboratory instrument for motion analysis	1981	5.83269478213213	-9.274313285190763	3490162
3490360	Graphics	3d scan-based animation techniques for chinese opera facial expression documentation	2007	5.816579611698165	-9.35657257274616	3490387
3490438	Graphics	a minicomputer facility for picture processing and pattern recogniton research	1976	5.524031368705519	-9.114888355765416	3490465
3490797	Visualization	design and realization of 3d irregular military symbols based on b-spline	2010	5.318905849987097	-8.79785054919698	3490824
3491088	Graphics	shadows for cel animation	2000	5.342449083402578	-9.638351522985962	3491115
3491156	Robotics	predictive state representations for grounding human-robot communication	2010	4.509019417725011	-8.724518400726629	3491183
3492638	Graphics	computer manipulation of digitized pictures	1971	6.187507460329609	-8.45818509495775	3492665
3492702	HCI	spatial cognition adapts to social context	2011	4.564629351339817	-8.773650824629073	3492729
3493282	AI	interactive generative systems for conceptual design: an empirical perspective	1999	5.988369847340633	-7.92874951100762	3493309
3493552	Visualization	anthrovis: visual analysis of 3d mesh ensembles for forensic anthropology	2017	6.269728146347386	-7.896139806664416	3493579
3494449	Graphics	a simple attraction	1992	5.841093586130463	-8.012467608806041	3494476
3494633	Graphics	virtual cinematography: relighting through computation	2006	5.391039134522054	-9.743472640438236	3494660
3495000	Graphics	saliency-aware generative art	2018	5.4048744281362735	-9.761155061762995	3495027
3495131	Graphics	3d collage: expressive non-realistic modeling	2007	5.783461952632632	-9.186051697425638	3495158
3495160	HCI	2.5d stylized application using anisotropic reaction-diffusion	2016	5.7067245782416345	-9.634166345299787	3495187
3496071	NLP	voice conversion using interactive evolution of prosodic control	2002	5.435273505904792	-8.574991123470094	3496098
3496135	Graphics	analysing character shapes by string matching techniques	1993	6.0627361736304906	-9.369425815690654	3496162
3496247	NLP	a modular reinforcement learning framework for interactive narrative planning	2013	5.352088098479216	-8.4276543392303	3496274
3497490	Graphics	physically plausible rendering at pixar - from reyes to path tracing	2014	5.738260490517589	-8.896954403182185	3497517
3497545	HCI	shapeshop: towards understanding deep learning representations via interactive experimentation	2017	5.902097288935304	-8.18475535614393	3497572
3497547	Robotics	modeling communicative virtual agents based on joint activity theory	2013	5.4012357287390165	-7.981741458828402	3497574
3497827	HCI	three dimensional graphical display system	1964	6.182548313851077	-8.191142493277871	3497854
3498279	Graphics	computer generated celtic design	2003	5.762503785336548	-9.167225525628098	3498306
3498466	AI	evolving electroacoustic music: the application of genetic algorithms to time-domain waveforms	2004	5.35456471244468	-8.538477455983982	3498493
3498549	Vision	graphics recognition algorithms and applications	2002	5.952758250479026	-8.387639085298416	3498576
3499044	Robotics	cyther: a human-playable, self-tuning robotic zither	2017	4.714275515315292	-8.994371788952485	3499071
3499304	ECom	three corners of reward in computer games	2013	5.4200227694914265	-9.054204212481071	3499331
3499517	Visualization	a portable geometric algorithm visualization system with dynamic camera positioning for tracking 3d objects	2006	6.236502355499878	-8.786763535923122	3499544
3500922	HCI	spectral and granular spatialization with boids	2006	5.9991267784015525	-9.561619576450633	3500949
3501243	Visualization	an immersive collaborative virtual environment of a university campus for performing virtual campus evacuation drills and tours for campus safety	2015	4.603326268879608	-9.502738894015149	3501270
3501604	HCI	haptic weather	2008	6.039246933720889	-8.568931519529162	3501631
3501623	AI	animating cognitive models and architectures: a rule-based approach	2016	4.393392429628381	-8.384467078322443	3501650
3501911	Visualization	guest editor's introduction: special section on infovis	2004	6.1611376491877525	-8.317975439286286	3501938
3502329	Graphics	a framework for realistic image synthesis	1999	5.7465687865327775	-8.813011891155911	3502356
3502501	Robotics	animating groups of socially intelligent agents	2007	4.854117307722838	-8.468703839849569	3502528
3502506	Graphics	transparency in interactive technical illustrations	2002	5.924977955511074	-8.939201035092285	3502533
3502810	Vision	digital mock-up database simplification with the help of view and application dependent criteria for	2004	5.415218539776436	-9.782399698712826	3502837
3503373	HCI	digital mont'e prama: 3d cultural heritage presentations in museums and anywhere	2015	5.739189759557272	-9.710204834626069	3503400
3503532	Robotics	multibody dynamics model of a human hand for haptics interaction	2008	5.146854713651166	-9.647180886470816	3503559
3503612	HCI	a survey of procedural content generation techniques suitable to game development	2011	5.9754760174236745	-8.373682172248548	3503639
3503927	AI	symmetry hybrids	2011	5.288103897816586	-8.868535040203609	3503954
3504118	HCI	an interactive environement for the visual programming of virtual agents	1994	5.4934757775584675	-9.049896463602707	3504145
3504297	Graphics	sketching-out virtual humans: from 2d storyboarding to immediate 3d character animation	2006	5.425020956925291	-9.801124618555765	3504324
3504362	AI	an intelligent agent for the game of age of mythology: the titans	2008	4.454965726241585	-7.996246982892817	3504389
3505163	Vision	poetics of migration #1	2004	6.033701921699801	-9.08370188945508	3505190
3506296	EDA	new generation crowd simulation algorithms	2014	4.918947745917236	-9.255413425176481	3506323
3506362	AI	an imitation-based approach to represent common ground in a virtual basketball agent team mate	2015	4.979419959148641	-8.065526803917136	3506389
3506538	AI	self-validated behaviour trees through reflective components	2009	5.2528357193545085	-8.500360131631544	3506565
3506948	Visualization	syzygy: native pc cluster vr	2003	6.2461479463781675	-9.180363841074561	3506975
3507083	Graphics	characterization of multiresolution models for real-time rendering in gpu-limited environments	2016	6.082355581683643	-8.80517544079214	3507110
3507252	Robotics	an enactive based realtime 3d self-organization system for the exploration of a cultural heritage data base	2016	5.720177874971206	-8.61765975314473	3507279
3507311	Graphics	attribute based interfaces for geometric modeling	2006	5.952399995200429	-9.00132410159266	3507338
3508988	Visualization	d 3 fact insight goes parallel aggregation of multiple simulations.	2006	6.081524686299187	-8.713697985308187	3509015
3510024	AI	modeling bharatanatyam dance steps: art to smart	2012	5.552526621462605	-9.306046609635725	3510051
3510420	Robotics	historical perspective and state of the art in robot force control	1985	5.279661056905673	-8.97011911585998	3510447
3510919	Graphics	photosketch: a photocentric urban 3d modeling system	2017	6.015659171286856	-9.085562071252633	3510946
3512606	Graphics	rivers of rodents: an animation-centric crowds pipeline for ratatouille	2007	5.6285585877179605	-9.146743021596064	3512633
3513219	AI	ai-based world behaviour for emergent narratives	2006	5.035680733179603	-8.771314364907267	3513246
3513342	Graphics	organized order in ornamentation	2017	6.017233985966753	-9.1237830711423	3513369
3513439	Networks	"""growing up with fluid simulation on """"the day after tomorrow"""""""	2004	5.913360092395243	-8.850007878413365	3513466
3514417	AI	evaluating an evolutionary method of design style imitation	2011	5.365717525906618	-8.234431924985191	3514444
3515806	Vision	generating diverse ethnic groups with genetic algorithms	2012	4.882420283367424	-8.616323358303198	3515833
3517179	HCI	managing the real with the virtual: a role for digital media recording in archaeological fieldwork	2003	6.201090656634607	-8.172595573324804	3517206
3517442	HCI	a bdi game master agent for computer role-playing games	2013	4.6379881953759154	-8.21053438986575	3517469
3517531	Visualization	a programming environment for behavioural animation	2002	4.8507220978479815	-8.919592541399966	3517558
3517703	HCI	knowledge-driven game design by non-programmers	2013	5.394783288196031	-8.292130204192217	3517730
3519197	NLP	quest for information fusion in multimedia reports	2014	4.438585078176255	-8.927336410211074	3519224
3520920	DB	neural network technology to support view integration	1995	5.705394170100713	-8.379162736504732	3520947
3520978	Graphics	a real-time low-latency hardware light-field renderer	1999	5.547596621972287	-9.59466593327377	3521005
3521430	Graphics	an experimental laboratory for pattern recognition and signal processing	1972	4.545978675741456	-9.111698845395699	3521457
3521647	Robotics	timebender: a multiplayer game featuring bullet time mechanics	2017	6.152170264600164	-9.170583293685766	3521674
3521945	Graphics	visual acuity in day for night	2006	4.941779876653597	-9.378396262441015	3521972
3522298	Graphics	creature grammar for creative modeling of 3d monsters	2014	5.292113083071032	-9.422246231515777	3522325
3522306	Vision	the traveling optical scanner - case study on 3d shape models of ancient brazilian skulls	2016	6.015457551354237	-8.146325091538747	3522333
3523024	Graphics	cg teaching material for the electronic laboratory textbook - esterification of acetic acid and ethanol	2014	5.417466011459129	-8.799525220229052	3523051
3523148	Graphics	quantitative error analysis of color in ieee publications	2000	6.239967122586262	-8.538387312516154	3523175
3523794	HPC	performance modeling of interactive, immersive virtual environments for finite element simulations	1996	5.260624888906489	-8.71571206568417	3523821
3523811	HCI	the design of an applications development system for a laser videodisc workstation (abstract only)	1987	5.785690424856937	-9.721938578448327	3523838
3524003	HCI	computer-based methodologies for semi-automatic 3d model generation from paintings	2014	5.756924159813083	-9.240635899960317	3524030
3524868	Visualization	impart: big media data processing and analysis for film production	2015	5.920600184408668	-8.828929598228425	3524895
3525179	Visualization	production volume rendering: siggraph 2017 course	2017	6.127870605033934	-8.657769536932586	3525206
3526281	EDA	representing analogies to influence fixation and creativity: a study comparing computer-aided design, photographs, and sketches	2015	6.291597298048337	-8.600802978903676	3526308
3526545	HCI	generation of dilemma-based narratives: method and turing test evaluation	2008	6.139672195843407	-8.776256331672878	3526572
3526722	Visualization	case study: an environment for understanding protein simulations using game graphics	2001	6.194784162811867	-8.521867413746955	3526749
3528537	Visualization	lift-off: using reference imagery and freehand sketching to create 3d models in vr	2016	5.68484769332978	-9.494669082536461	3528564
3528733	Robotics	accelerating robot development through integral analysis of human–robot interaction	2007	4.473577748867113	-9.732296146064924	3528760
3529102	HCI	pynucastro: an interface to nuclear reaction rates and code generator for reaction network equations	2018	5.3679998124245465	-8.61457713608034	3529129
3529584	PL	an adaptable modular software architecture for distant control of virtual actors	1998	5.8879721776784315	-9.388168516617263	3529611
3529874	Visualization	architectural models in urban landscapes: synthesis of markers and virtual structures	2011	5.982743129304367	-9.383382703154973	3529901
3530350	AI	exploiting functional relationships in musical composition	2009	5.6003173039723695	-8.817207488791642	3530377
3531825	Graphics	building worlds with strokes	2013	5.788832443429067	-9.670073379121837	3531852
3532717	Graphics	graphical interface models for procedural mesh growing	2010	6.090361601242687	-8.88007227097045	3532744
3533471	Visualization	shader interoperability: baking and reusing materials across rendering architectures at pixar	2014	5.923858986948044	-8.85557449639669	3533498
3533874	AI	virtual personal service assistants: towards real-time characters with artificial hearts	2000	4.999978024218224	-8.521704674537283	3533901
3534214	ML	visualizing and understanding policy networks of computer go	2018	5.651634504115415	-9.073876511493808	3534241
3534651	AI	ongoing research on adaptive layered manufacturing from overtraced freehand sketch	2010	5.9554078700738025	-9.222165833734296	3534678
3534770	HCI	information flocking: data visualisation in virtual worlds using emergent behaviours	1998	5.148818559912741	-7.980368421095205	3534797
3535422	HPC	progressive render checkpoint workflows in production	2015	5.9918556709153625	-8.898556445088078	3535449
3536167	Graphics	sd models: super-deformed character models	2012	5.978918243655447	-9.618665333438779	3536194
3536940	AI	modeling teamwork of multi-human multi-agent teams	2013	4.687474854641576	-8.034004515900241	3536967
3537431	EDA	understanding and implementation of the digital design modules for hanok	2011	5.999056980285614	-8.830728614565448	3537458
3538537	Graphics	wrinkle rendering of terrain models in chinese landscape painting	2006	5.510428493811462	-9.169929008232089	3538564
3539057	NLP	a portable knowledge-based system for car breakdown evaluation	2015	4.811889520858607	-9.28868432059254	3539084
3539090	AI	survival of the assistive. toward biomimetic ambient intelligence	2005	4.665378131940319	-7.983549594178416	3539117
3539500	Graphics	dynamic graphics using quasi parallelism	1978	4.841540360335412	-9.657520616230382	3539527
3539563	Graphics	"""making """"458nm"""""""	2006	5.829231021559732	-8.198074775822334	3539590
3540070	HCI	adapting to change in complex work environments	2000	4.91966247978293	-9.469210541431618	3540097
3541140	AI	adaptive critics for evolutionary artists	2004	5.486085227061405	-8.3411823009688	3541167
3543214	Graphics	capturing the shape of a dynamic world - fast!	2003	4.9558378092808395	-9.735184842213313	3543241
3543681	Robotics	robotics and interactive simulation	2002	5.4236312943042995	-9.533601849300435	3543708
3543796	AI	real-time case-based reasoning for interactive digital entertainment	2010	5.862324063657846	-8.567963412618921	3543823
3545629	EDA	a method for illustrating shogi postmortems using results of statistical analysis of kifu data	2017	4.646686150285045	-7.909455767617952	3545656
3545695	Graphics	anima ii: a 3-d color animation system	1977	6.124247153589804	-8.948121284631878	3545722
3547139	AI	interplay between natural and artificial intelligence in training autistic children with robots	2013	4.729650356971532	-8.038628609922169	3547166
3547307	SE	computational modeling of passenger amphibian aircraft be-200 cabin interior	2014	5.720805240461699	-8.881896429307256	3547334
3547619	Vision	the beauvais cathedral project	2003	6.244354599940634	-8.024069560265854	3547646
3548020	HCI	a realistic reaction system for modern video games	2005	5.12140485870546	-8.906263810007713	3548047
3548135	Graphics	shape and texture reconstruction for insects by using x-ray ct and focus stack imaging	2018	5.069967050897558	-9.375947733519014	3548162
3548397	Vision	real-time cinematic shot lighting in the order: 1886	2015	6.0750053194667855	-9.757710956374572	3548424
3548894	Vision	computer-aided creation of impossible objects and impossible motions	2007	5.689057266730778	-9.30137653274422	3548921
3549126	HCI	4-d/n-d computer aided design	2007	5.8674230543541865	-8.753707109771165	3549153
3549342	Robotics	multi-method learning and assimilation	2007	4.415323180371049	-9.480773562535095	3549369
3550365	HCI	production tools for furry characters	2009	5.650245168642369	-9.108826684790415	3550392
3551130	AI	modeling and augmenting game entertainment through challenge and curiosity	2007	4.747996677955161	-8.424722739867002	3551157
3551492	SE	"""""""talent, skill and support."""" a method for automatic creation of slogans"""	2018	6.0749162074513166	-8.389005876419164	3551519
3553166	Graphics	directable and stylized hair simulation	2008	5.203437331599357	-9.592896346007358	3553193
3553520	AI	a new emotional architecture for cognitive tutoring agents	2008	4.459279226485418	-8.286034437751043	3553547
3553734	Robotics	camera-agnostic format and processing for light-field data	2017	5.498128345641265	-8.706536253956227	3553761
3553966	Graphics	sensitive couture for interactive garment modeling and editing	2011	5.492119218328709	-9.770561409840296	3553993
3554263	Visualization	dynamic texturing of real objects in an augmented reality system	2005	5.867551914352415	-9.682540969046457	3554290
3554730	HCI	towards an interaction concept for efficient control of cyber-physical systems	2014	5.685106929776916	-9.19644681249179	3554757
3555373	Visualization	implementation of virtual environment using virtools	2008	5.859313145830384	-9.23395501593396	3555400
3555794	AI	automatic asian art: computers converting photos to asian paintings using humanistic fuzzy logic rules	2003	5.748529897934096	-9.316018337214723	3555821
3556573	Vision	image morphing for space-time interpolation	2007	5.515955582806324	-9.324382497579732	3556600
3557732	AI	procedural generation of angry birds levels using building constructive grammar with chinese-style and/or japanese-style models	2016	5.077882015884214	-8.398767875430504	3557759
3557914	Visualization	iq-station: a low cost portable immersive environment	2010	6.199254828195512	-9.78298165626374	3557941
3557954	Graphics	teddy: a sketching interface for 3d freeform design	1999	5.3410823409821	-9.755098876100043	3557981
3558158	HCI	aesthetic-interaction: exploring the importance of the visual aesthetic in the creation of engaging photorealistic vr environments	2009	6.177525159145286	-9.553492004341916	3558185
3559655	HCI	the effect of user interaction mechanisms in multi-objective iga	2007	5.474203225621717	-8.236853535067848	3559682
3559719	Robotics	an interactive evolutionary computation framework controlled via eeg signals	2014	5.10641297288832	-8.632339931680725	3559746
3560927	HCI	graphics in the large: is bigger better?	2002	5.697952445614394	-9.16737795179259	3560954
3561526	AI	managing interaction between users and agents in a multi-agent storytelling environment	2003	5.175972863141112	-8.499022837392213	3561553
3561633	Theory	explorations with sketchpad in topogeometry	2008	5.9409101044074655	-8.758421084278108	3561660
3561668	HCI	visual analysis of pressure in football	2017	4.643202707350998	-8.378856333043734	3561695
3561860	AI	automatic level generation for platform videogames using genetic algorithms	2011	5.470678739355658	-8.566850603754947	3561887
3562126	AI	subjectivity and awareness	2015	4.512021084933204	-8.881941716860679	3562153
3562350	HCI	double meandering algorithm: from drawing game to automated animation	2011	5.746594897274119	-9.28237201020092	3562377
3562707	Robotics	conceptual geometric reasoning by the manipulation of models based on prototypes	1995	5.538279674232745	-8.195371644751209	3562734
3562954	Graphics	creating interactive graphics for mathematics education utilizing ketpic	2014	6.206174681426371	-8.694126572427862	3562981
3563048	NLP	genetic shaders: interactive and automatic shader generation	1997	5.922739249937787	-8.474807304181436	3563075
3563758	AI	how things appear to work: predicting behaviors from device diagrams	1994	4.783542000654578	-8.007923398137727	3563785
3564563	ML	a simulation model to analyze the impact of hole size on putting in golf	2008	4.804641000067736	-8.813656706573553	3564590
3565525	Robotics	computer aided chair design system using form features	2002	5.9378652050458935	-9.176686585367811	3565552
3565682	Visualization	on the visual quality of still images and of low-motion talking head digital videos	1999	5.916526851844536	-8.807831454393515	3565709
3565958	DB	two-phase schema matching in real world relational databases	2008	4.834898015453598	-8.094822316548072	3565985
3565981	Visualization	interactive visualization of mathematics in 3d web	2012	6.2041705134210146	-8.994755858304526	3566008
3566073	Robotics	systemic interaction analysis (sina) in hri	2009	4.387469207342587	-9.251576291582671	3566100
3566397	ML	metarep, an extended cmas 3d program to visualize mafic (cmas, acf-s, acf-n) and pelitic (afm-k, afm-s, akf-s) projections	2010	5.521434097457217	-8.059864955782603	3566424
3566704	HCI	3d ancient mosaics	2010	5.784309257576293	-9.184981054705505	3566731
3567881	AI	fiona: a platform for embodied cognitive agents	2014	4.667547496836726	-8.632454103800569	3567908
3569823	Robotics	3d digital reassembling of archaeological ceramic pottery fragments based on their thickness profile	2016	5.751302395923824	-8.462122192663713	3569850
3569839	Visualization	a survey of solutions for game engines in the development of immersive applications for multi-projection systems as base for a generic solution design	2015	5.76083526991495	-9.791399424008112	3569866
3570009	Graphics	planning computer modeled animation: towards an animation machine	2000	5.4530495284069405	-9.00787014743142	3570036
3570036	Graphics	"""digital kung-fu fighters and face replacement for the one"""""""	2002	5.918352437222767	-9.554404405519218	3570063
3570090	Visualization	digital preservation of ancient cuneiform tablets using 3d-scanning	2003	6.113246333214461	-8.29937149302597	3570117
3570167	AI	using online games to capture, generate, and understand natural language [invited talk]	2011	4.462251910229894	-8.997403382043474	3570194
3570265	Graphics	sketching-out virtual humans: from 2d storyboarding to immediate 3d character animation	2006	5.421821812341598	-9.756704427793156	3570292
3570780	Graphics	computer drafting of stones, wood, plant and ground materials	1979	5.8019503170613165	-8.971889631089102	3570807
3571368	ECom	modelling natural branching structures	1988	6.196965041591393	-8.295046822668576	3571395
3571939	Visualization	signal processing for computational photography and displays [from the guest editors]	2016	5.300985409650714	-9.595846333766012	3571966
3571967	AI	procedural level design for platform games	2006	5.604241280709636	-8.366376411734477	3571994
3573450	HCI	challenging ai: evaluating the effect of mcts-driven dynamic difficulty adjustment on player enjoyment	2019	4.616683730463562	-8.20141925930294	3573477
3574837	EDA	a haptic method for conceptual design of multi-material product	2009	5.569104921839906	-9.56019129123062	3574864
3575704	Visualization	emile and the fabulous small gentlemen	2008	5.994139942751029	-8.678461743685808	3575731
3576790	Visualization	virtual reality surgical simulator software development tools	2013	5.3998148712243355	-9.465956041833355	3576817
3577114	Visualization	research on virtual training system in aerospace based on interactive environment	2016	4.520000229736837	-9.612975146425956	3577141
3577194	HCI	anyone can sketch vignettes	2012	5.660456555540155	-9.457013185947874	3577221
3577491	Networks	cartoon scum	2010	6.069834476932438	-8.451456142160287	3577518
3577607	Graphics	computed 3d visualisation of an extinct cephalopod using computer tomographs	2012	6.155657132464255	-8.041107839607806	3577634
3577641	Robotics	ex machina: rigging beneath the surface	2015	5.622990047399966	-9.479404141290473	3577668
3578952	HPC	unity cluster package - dragging and dropping components for multi-projection virtual reality applications based on pc clusters	2015	6.287974902714487	-9.620866363340557	3578979
3578966	AI	a semantic layer for knowledge-based game design in edutainment applications	2015	6.214922764582336	-8.897421814094171	3578993
3579124	AI	answer set programming for procedural content generation: a design space approach	2011	5.715165743180332	-8.121078841341697	3579151
3579326	Visualization	real-time re-textured geometry modeling using microsoft hololens	2018	5.417046153614571	-9.583645160127485	3579353
3579819	SE	a perceptual study into the behaviour of autonomous agents within a virtual urban environment	2013	4.972050876982502	-8.603874528979192	3579846
3580909	Graphics	a parallel accelerator for generating virtual studio sets	1993	6.167334901959782	-8.615760565667655	3580936
3581774	EDA	making love	2010	6.000239692548399	-9.052348910819859	3581801
3582787	HCI	a novel way to study muscle anatomy of the beef animal	2004	5.819054565089037	-9.712021526275633	3582814
3583640	Robotics	robotic societies: elements of learning by imitation.	2003	4.57209459409787	-8.548825449533922	3583667
3583921	AI	knowledge representation and control structure based on three-dimensional symbolic skeletons for cad/cam integration	1990	5.774522133329438	-7.895526288318407	3583948
3584128	AI	affective composites: autonomy and proxy in pedagogical agent networks	2005	5.223264932825426	-8.173038286116974	3584155
3585101	Robotics	networked intelligent robots by ontological neural networks	2004	4.495813197738523	-9.102282199024234	3585128
3585688	Vision	automatic 3d modeling of archaeological objects	2003	6.019329720841276	-8.388505121195047	3585715
3586507	Graphics	an on-line two-dimensional computation system	1972	6.0942114987621565	-8.714421954760617	3586534
3586510	Visualization	art in the pipeline : artistic rendering in volume graphics	2000	5.941498423476151	-8.722786612509783	3586537
3587333	Vision	multi-faceted evolution of simple arcade games	2011	5.281707619545021	-8.184504523884254	3587360
3587341	Visualization	using a rendering engine to support the development of immersive virtual reality applications	2008	6.186392781078078	-9.592290077486613	3587368
3588146	Graphics	efficient multi-constrained optimization for example-based synthesis	2015	6.20123044925075	-9.179811889806553	3588173
3588245	HCI	using evolutionary design to interactively sketch car silhouettes and stimulate designer's creativity	2012	5.390216359118083	-8.468798353586898	3588272
3590495	Graphics	interactive design of visual aids	1977	6.27011910134634	-9.3384306793365	3590522
3590745	Graphics	incremental line labelling for sketch input of solid models	1996	6.001598346787473	-8.869977763871711	3590772
3590761	Vision	lippmann photography and the glory of frozen light: eternal photographic color real and false	2002	5.640131292372048	-8.710935724083331	3590788
3590860	HCI	mixed initiative systems for human-swarm interaction: opportunities and challenges	2018	4.562612001836956	-8.140038015707919	3590887
3591000	HCI	anticipatory guidance of plot	2003	5.280845376747794	-8.431347062912728	3591027
3591419	AI	learning from humans—computational models of cognition-enabled control of everyday activity	2010	4.661983220598964	-8.579131203774713	3591446
3592909	HCI	a layered scripting language technique for avatar behavior representation and control	2004	5.48526074276564	-9.35807137094176	3592936
3594292	HCI	reconstruction of stone walls in form of polygonal meshes from archaeological studies	2018	6.187203711166093	-8.016652524091091	3594319
3594794	EDA	learning the image processing pipeline	2017	5.5307028367792	-8.993248083283783	3594821
3594947	NLP	detecting emotions with smart resource artifacts in mas	2016	5.319029730919026	-8.01024490036899	3594974
3595975	Arch	color grading with neural network	2017	5.857364678740096	-8.721192919110843	3596002
3596192	Robotics	a method for 3d-scene generation using a human-like language	2006	5.277259762192571	-9.18657504117976	3596219
3596202	AI	modeling dynamic decision-making of virtual humans	2016	4.808077547411532	-8.451399554018844	3596229
3596633	Graphics	reshape and relighting for interactive content creation and manipulation. (remodelage et re-eclairage pour la création et manipulation de contenu interactif)	2011	5.6725823599249585	-9.583306005850718	3596660
3597388	Embedded	simulink toolbox for real-time virtual character control	2016	5.193460077345442	-9.4516434776114	3597415
3597428	Graphics	papart: interactive 3d graphics and multi-touch augmented paper for artistic creation	2012	5.904302090030417	-9.660139978902023	3597455
3597723	AI	another look at search-based drama management	2008	4.645755374585191	-7.904521421372068	3597750
3598189	Robotics	special issue on cognitive robotics	2018	4.511126968454996	-8.689349234472878	3598216
3598783	Graphics	odecal, a flexible open source rag doll simulation engine	2006	6.160635113506914	-9.476589757449123	3598810
3598939	Mobile	next century challenges: nexus - an open global infrastructure for spatial-aware applications	1999	5.736131266128307	-8.99442614162298	3598966
3599176	Graphics	the stormriders feature film	1998	5.7022550939370795	-9.241432587575519	3599203
3600064	AI	thingworld: a multibody simulation system with low computational complexity	1989	5.19305769751354	-8.972948622825605	3600091
3600490	AI	teaching the evolution of behavior with superduperwalker	2005	5.017839035332696	-7.991035695519812	3600517
3601017	Graphics	understanding iconography : a method to allow rich picture interpretation to improve	2014	6.1277756767606215	-9.626716315783444	3601044
3601497	Graphics	towards image-based beard modeling	2009	5.212257945554214	-9.227006228374442	3601524
3601519	Graphics	a framework for interactive responsive animation	2000	5.330755461675653	-9.567355864518474	3601546
3601895	ML	super high definition three-dimensional display evironment applied to visual data mining	2010	6.2317343797542595	-9.165896500734343	3601922
3602168	Visualization	the evolution of army wearable computers	2002	4.395201948791768	-8.994525674666848	3602195
3602172	Visualization	what does virtual reality need?: human factors issues in the design of three-dimensional computer environments	1996	6.1946651255224925	-9.774346662979486	3602199
3602955	Visualization	collaborative virtual environments for training	2001	5.574208557928568	-9.480460927601515	3602982
3603342	Graphics	layered manufacturing technologies	2005	5.924608272253477	-9.043263880384963	3603369
3603788	HCI	the behavior oriented design of an unreal tournament character	2005	4.567711851556741	-8.168845454935354	3603815
3604415	Graphics	procedural modeling of mosques	2018	5.816690425655064	-8.817266314811494	3604442
3604518	ECom	new methodology in facial composite construction: from theory to practice	2009	4.6320460381669095	-9.20864627214346	3604545
3604855	Visualization	comparison of advanced and standard real-time 3d rendering methods for interactive landscapes (short paper version)	2013	6.161970750474688	-8.7420151267275	3604882
3605661	ML	image appearance exploration by model-based navigation	2009	5.570060659415952	-9.541050483029842	3605688
3606197	Graphics	agent-based plot planning for automatic generation of computer animation	2005	5.471098826896684	-8.430227946035433	3606224
3607722	HPC	the blue-c distributed scene graph	2003	6.234607918643341	-9.458589391526877	3607749
3607782	Graphics	3d modeling by scanning physical modifications	2015	5.403232946203609	-9.218519334859014	3607809
3608172	AI	art to smart: automation for bharatanatyam choreography	2013	5.607813483258778	-8.57274285954704	3608199
3608435	HCI	a toolset for beach volleyball game analysis based on object tracking	2014	5.269836813222777	-9.53025335649794	3608462
3608599	Vision	scenario sharing in a collaborative virtual environment for training	2008	4.5205657016038066	-9.033895621108352	3608626
3609767	AI	constraint-based 3ds isothetic object layout for declarative scene modeling	2003	5.9904615993304375	-8.390373576856875	3609794
3610010	Visualization	an approach to camera work based animation	2007	5.730021277233408	-9.620188607732509	3610037
3611578	Visualization	virtual emergency rehearse system for dangerous gas diffusion in chemical industry park	2011	5.102364897135937	-8.834383439908267	3611605
3611757	AI	negotiating gestalt: artistic expression by coalition formation between agents	2005	5.4993650347176315	-8.522041443321822	3611784
3611987	DB	3d documentation and monitoring of the experimental cleaning operations in the underwater archaeological site of baia (italy)	2013	6.045471660591527	-8.066324651343278	3612014
3612191	Logic	mapping chess aesthetics onto procedurally generated chess-like games	2018	5.379533216577173	-8.103700993064477	3612218
3612355	Robotics	toward recovering complete srs for softbody simulation system and a sample application - a team 9a soen6481 w13 project report	2013	5.760223792718384	-9.468429131719748	3612382
3613820	Visualization	sound visualization through a swarm of fireflies	2015	5.1666083720969835	-8.414068223719399	3613847
3615338	Visualization	director's cut: analysis and annotation of soccer matches	2016	4.532230018231575	-8.230033174198956	3615365
3615422	Graphics	programmable 2d arrangements for element texture design	2017	6.0052977973184944	-8.88398930399277	3615449
3615494	DB	predicting product aesthetic quality using virtual environments	2001	5.754296093282544	-8.975212665260552	3615521
3615777	Visualization	ontoplant: an integrated virtual plant software package for different scale applications	2011	5.789318661148168	-8.350752784912663	3615804
3617414	Robotics	from robolab to aibo: a behavior-based interface for educational robotics	2006	5.611418365659827	-9.769395645233322	3617441
3618356	HCI	evolutionary music composition for digital games using regent-dependent creativity metric	2017	5.525336559396151	-8.328876073663443	3618383
3619011	Graphics	looking beyond stereoscopic 3d's revival	2010	5.869671467891142	-9.124675393745267	3619038
3619064	Visualization	can't see the jungle for the trees	2016	5.992885414848603	-8.825718314212597	3619091
3619596	AI	artvox: evolutionary composition in visual and sound domains	2006	5.5378616337803965	-8.461598312299698	3619623
3620534	HCI	aesthetic geometry evolution in a generic interactive evolutionary design framework	2005	5.9293163692569335	-8.886635469402789	3620561
3620727	Graphics	computer animation and visualisation techniques of mechanical products for assembly analysis	2003	4.913623048455658	-9.330107640400684	3620754
3620901	SE	outdoor lighting design process optimization	2013	5.729027458645692	-9.628351789933069	3620928
3620963	Graphics	new image generation techniques	1997	5.514890173520162	-9.688011534349638	3620990
3621003	HCI	player-driven procedural texturing	2007	5.713153486013615	-9.335574175760673	3621030
3621310	Graphics	three unconventional representations of the mandelbrot set	1990	5.716554534462742	-8.012965655176929	3621337
3623249	AI	ai characters and directors for interactive computer games	2004	5.291616938161002	-8.487667839762965	3623276
3623479	Visualization	flyaway: a 3d terrain visualization system using multiresolution principles	1999	6.198796288437995	-8.485759069567344	3623506
3623568	AI	incorporating emotion regulation into virtual stories	2007	5.060527565595951	-8.0425070606291	3623595
3623896	ECom	an artificial emotional agent-based architecture for games simulation	2013	5.111319714844916	-8.462613318842681	3623923
3625422	Robotics	a sketching interface for freeform 3d modeling	2011	5.410366486838354	-9.696630085658347	3625449
3625628	AI	human–agent collaboration for time-stressed multicontext decision making	2010	4.48964295165066	-8.565201524333878	3625655
3625824	Robotics	the knowledge engineering approach to autonomous robotics	2003	4.571334362230466	-7.954776323437861	3625851
3626220	Robotics	embodying cognitive abilities: categorization	2007	4.449041197394613	-7.900090365189137	3626247
3626430	Robotics	robotic dance in social robotics—a taxonomy	2015	5.0380952598158935	-8.88717206845726	3626457
3626584	Visualization	adding intelligence to virtual reality	2004	5.796434940011923	-9.790277240369091	3626611
3626669	Graphics	implementing the continuous staircase illusion in opengl	2002	5.439659623218796	-9.792295580385133	3626696
3627316	Graphics	a skeleton/cage hybrid paradigm for digital animation	2017	5.923022606110144	-9.232759987793582	3627343
3627997	Web+IR	darkness and depth in early renaissance painting	2010	5.76634572250906	-8.410957302170832	3628024
3629061	Robotics	yumi, come and play with me! a collaborative robot for piecing together a tangram puzzle	2016	5.098281294144713	-9.593724817809116	3629088
3630427	HCI	communication and shared mental models for teams performing interdependent tasks	2016	4.745926659593857	-8.375541125794896	3630454
3630740	Graphics	simplified curve and surface interrogation via mathematical packages and graphics libraries and hardware	1995	5.702603567460197	-9.10887931794137	3630767
3630825	AI	building coalitions involving agents and humans: reports from agent-based participatory simulations	2007	4.705387122982706	-8.146849811502573	3630852
3630939	Robotics	office layout support system for polygonal space using interactive genetic algorithm — generation of room arrangement plans —	2012	5.023658773914064	-9.718868822430162	3630966
3632424	NLP	proposal of an artificial emotion expression system based on external stimulus and emotional elements	2008	5.096330156996297	-7.8934043002378065	3632451
3633884	AI	smart distance and wwwaware: a multi-agent approach	2001	4.825115801240048	-7.99683422885447	3633911
3634838	Graphics	interactive motion generation from examples	2002	5.037626921069941	-9.567741051956947	3634865
3636537	Graphics	content control scheme to realize right succession and edit control	2015	6.2163583305416426	-8.979755396462512	3636564
3637487	Graphics	realism : reusable elements for animation using local integrated simulation models	1994	5.187777202904577	-9.08217130517229	3637514
3638052	Graphics	hair smash	2015	5.733209417347777	-9.205275683424963	3638079
3638207	Visualization	simulation of large crowds in emergency situations including gaseous phenomena	2005	4.964908251443498	-8.772742228730007	3638234
3639058	AI	originality and diversity in the artificial evolution of melodies	2011	5.288317245977462	-8.319708577361354	3639085
3639098	HCI	an agent based collaborative simplification of 3d mesh model	2009	6.20849759548634	-8.80914010176197	3639125
3639235	Graphics	interactive garment design	1990	5.494754245988691	-9.329993818269019	3639262
3639574	HCI	freesculptor: a computer-aided freeform design environment	2003	5.80528079169653	-9.657722495516893	3639601
3639872	NLP	evolving art with scalable vector graphics	2011	5.332641077066164	-8.287720339697577	3639899
3640096	Visualization	a spatially augmented reality sketching interface for architectural daylighting design	2011	5.942359879420542	-9.670698871597331	3640123
3641000	AI	the text-based adventure ai competition	2018	4.4774900872749885	-7.9767866725903795	3641027
3641240	AI	story planning as exploratory creativity: techniques for expanding the narrative search space	2006	5.945937148298537	-8.005128401423688	3641267
3641258	AI	video agents	2007	4.799003029691542	-8.922726239021207	3641285
3641311	HCI	animated chartoon faces	2000	5.9692419484344255	-9.758575980194948	3641338
3641915	HCI	preschoolers understand the representational and communicative nature of iconic gestures	2013	6.087038630847663	-8.413093202873428	3641942
3642043	AI	a multiagent system for physically based rendering optimization	2007	5.331212678620245	-8.901564030280845	3642070
3642841	HCI	motivational ambient and latent behaviors in computer rpgs	2007	4.9912875538869645	-8.52541352157108	3642868
3642967	Vision	geometric reconstruction of amir-chakhmagh square through backward-perspective	2011	5.96035410307554	-8.408322471412635	3642994
3643917	DB	towards computer assisted crowd aware architectural design	2016	5.343456914988174	-8.717950181454754	3643944
3644794	Logic	bilateral estimation of vertex normal for point-sampled models	2005	6.066820446152902	-8.950460526637709	3644821
3645951	AI	a framework for hybrid multimodal performances	2017	5.883243413308004	-9.547804655858775	3645978
3648769	Visualization	guest editor's introduction: special section on the symposium on interactive 3d graphics and games (i3d)	2010	5.887917772352508	-8.752251022605098	3648796
3649238	Graphics	guest editorial	2009	5.631232363569425	-9.75165074585701	3649265
3649532	HCI	the communication of virtual human faces using mpeg-4 tools	2000	6.291211369772348	-9.655294632781695	3649559
3649625	Graphics	humanistic oriental art created using automated computer processing and non-photorealistic rendering	2007	5.617755265098554	-9.209759809918195	3649652
3649648	AI	mas controlled npcs in 3d virtual learning environment	2013	5.043264826598184	-8.449049451593943	3649675
3650076	Vision	network transmission of 3d mesh data using progressive representation	2009	6.098385610366389	-8.29585645639012	3650103
3651020	HCI	surf's up: the making of an animated documentary	2007	5.823180569053752	-9.462641119210547	3651047
3652701	Robotics	an image-based hair styling system using layered texture pieces	2011	5.631842251219082	-9.026405172525198	3652728
3652712	Arch	digital clay: architecture designs for shape-generating mechanisms	2003	5.677385619206308	-9.089776958466956	3652739
3653207	Mobile	sensors on stage: conquering the requirements of artistic experiments and live performances	2015	6.218102688906614	-9.030511457132576	3653234
3653679	HCI	a practical guide to large tiled displays	2009	6.296458425372387	-9.105661627875874	3653706
3653782	Graphics	computer animation of free form images	1975	5.677433316839282	-9.519581287305678	3653809
3654926	Vision	classification of team behaviors in sports video games	2006	4.41214138111577	-8.492545361627098	3654953
3655342	Graphics	interactive motion generation from examples	2002	5.04130311720846	-9.563816950217062	3655369
3655901	Vision	evolving art using measures for symmetry, compositional balance and liveliness	2012	5.111279520700782	-8.421550354710298	3655928
3656127	HCI	from reality to augmented reality: rapid strategies for developing marker-based ar content using image capturing and authoring tools	2015	6.1011282526875235	-9.709568304560033	3656154
3656848	HCI	expressive and dynamic deformation of animated computer-generated characters	2006	5.540230510580447	-9.28537518037726	3656875
3658369	Visualization	design recovery of real-time graphical applications using video	2004	6.2772236328667805	-8.238946988105482	3658396
3659413	HCI	making interactive evolutionary graphic design practical	2008	5.723022254050664	-8.54585442595098	3659440
3659415	HCI	vignette: interactive texture design and manipulation with freeform gestures for pen-and-ink illustration	2012	5.701629159427304	-9.451813548786935	3659442
3660282	HCI	gesture-based, touch-free multi-user gaming on wall-sized, high-resolution tiled displays	2008	6.184136127284049	-9.333100623477991	3660309
3662392	Visualization	visualization in medicine: virtual reality or actual reality ?	1994	6.244636960843081	-8.443802202653501	3662419
3662942	Visualization	pose-inspired shape synthesis and functional hybrid	2017	5.510429742497943	-8.931329498229632	3662969
3663183	AI	opennero: a game platform for ai research and education	2008	6.0997122515568165	-8.618876596780117	3663210
3665651	Graphics	warcraft: raising a horde	2016	5.931276584651562	-9.063407924185896	3665678
3667208	HCI	impression-based fabrication: a framework to reflect personal preferences in the fabrication process	2018	6.267769645066413	-9.26016824843107	3667235
3667336	Graphics	discuss the modeling technique of 3d animated characters under three-dimensional visual angle	2011	5.536510081581283	-9.06706103974158	3667363
3668423	Graphics	computer generated caricature: a survey	2010	5.848113099143933	-9.319771764607378	3668450
3669145	HCI	evaluating competitive game balance with restricted play	2012	4.610974936151459	-7.998703954394326	3669172
3669527	AI	computer model of emotional agents	2006	4.86523256754062	-8.79777740925986	3669554
3670333	Graphics	how to color in a coloring book	1978	6.072371225411437	-8.966054571450806	3670360
3670732	Visualization	smooth and efficient zooming and panning	2003	5.995034548669528	-9.176703548700232	3670759
3671254	AI	artificial intelligence in racing games	2009	4.509597012136892	-8.317062207650443	3671281
3671663	HCI	toward an ontology of regulation: socially-based support for coordination in human and machine joint activity	2006	4.675082751986757	-8.11324137010782	3671690
3672737	AI	collaboration in parallel worlds	2004	6.202539766338826	-9.767240190260091	3672764
3673210	Graphics	rendering artistic light patterns	2015	5.844223689884408	-9.259846936449458	3673237
3673641	ECom	generative product design inspired by natural information	2014	5.587913789600604	-8.612757679871823	3673668
3674147	Robotics	variant - processing and visualizing terrains at variable resolution	1997	6.029121997919187	-8.114875316167751	3674174
3674177	Graphics	"""pushing the limits of l-systems for time-lapse vine growth in """"the time machine"""""""	2002	5.876723197781008	-8.546336645953371	3674204
3674621	Graphics	intelligent expression-based character agent systems	2009	5.608581189817425	-8.781240189326425	3674648
3674735	ML	whole-history rating: a bayesian rating system for players of time-varying strength	2008	4.950500079305307	-7.917919072953121	3674762
3674780	HCI	towards learned anticipation in complex stochastic environments	2005	4.541997225216768	-8.032203376283123	3674807
3675012	Graphics	efficient dynamics modeling for vrml and java	1998	5.661343884673193	-9.044655387780306	3675039
3675101	Graphics	real time digital image generation	1977	5.437566723851692	-9.54389950290249	3675128
3675367	AI	modeling player-like behavior for game ai design	2011	4.877871439492108	-8.26356004877956	3675394
3675644	AI	simulated perceptions for emergent storytelling	2017	5.197897600151051	-8.324673550665691	3675671
3675668	ML	world wide web adapted geometric model in the context of functional design	2000	6.141253117792367	-8.103272028230064	3675695
3676377	AI	creating a cognitive agent in a virtual world: planning, navigation, and natural language generation	2013	5.0995150736970665	-9.326095341552673	3676404
3676744	HCI	zootopia crowd pipeline	2016	5.775703953355171	-8.835811421205127	3676771
3676858	Visualization	the hyperreal design system	2005	5.710493304971977	-9.430158724972594	3676885
3677402	HCI	operational support for origami beginners by correcting mistakes	2016	6.061484877920845	-9.321096227978396	3677429
3678403	AI	anthropomorphism in social robotics: empirical results on human–robot interaction in hybrid production workplaces	2017	4.876740883633997	-8.729127255855	3678430
3679158	Graphics	speedfur: a gpu based procedural hair & fur modeling system	2011	5.854283438803718	-9.018487877786516	3679185
3680001	AI	a virtual experiment platform for mechanism motion cognitive learning	2011	4.838971544089072	-9.601275240660918	3680028
3680491	Robotics	blending narrative spaces of the reenactment scenes in the thin blue line	2012	5.918288078312435	-8.61081839020237	3680518
3681509	Robotics	evolving assembly plans for fully automated design and assembly	2005	4.631455193536938	-8.345144830055302	3681536
3681769	Vision	managing 3d: our next problem	2007	6.1352766365614055	-8.346455180244451	3681796
3682054	HCI	avatars in conversation: the importance of simulating territorial behavior	2010	5.128467890031176	-8.754207359797865	3682081
3683492	Graphics	cortex academy	2004	5.879981141108034	-9.079771712595022	3683519
3684573	Vision	transpen & mimeopad: a playful interface for transferring a graphic image to paper by digital rubbing	2007	5.7960073729924835	-9.769426161046614	3684600
3684733	Graphics	lace curtain: rendering animation of woven cloth using brdf/btdf: estimating physical characteristics from subjective impression	2012	5.1058275547425005	-9.777650858331373	3684760
3687112	Graphics	x3d based playground configurator	2013	5.905099043351062	-9.446094249262034	3687139
3687641	HCI	automatically designing and printing 3-d objects with evofab 0.2	2012	4.754493881689137	-8.450085203292245	3687668
3688031	Networks	destroying the pharaoh's army - large-scale dynamics in exodus	2015	5.834634515868424	-8.991203886910707	3688058
3688172	Vision	crossing the divide between computer vision and databases in search of image databases	1998	5.60527513812095	-8.553086371303682	3688199
3688618	HCI	shared autonomy for an interactive ai system	2018	5.1139505835229615	-8.747187990443694	3688645
3689138	Vision	sports tv applications of computer vision	2011	5.799082003468473	-9.782659553507367	3689165
3689608	NLP	a deep-learning approach for operation of an automated realtime flare forecast	2016	5.658265282931982	-8.646328386930675	3689635
3690528	HCI	teaching computers with illusions	2015	5.6282751616247175	-9.040649995249703	3690555
3690645	Visualization	3d object presentation mapping	2011	5.915874559091218	-9.103343465653793	3690672
3690809	Graphics	computer-assisted creation of 3d models of freeway interchanges	2010	5.965422481646024	-8.440718269462533	3690836
3691087	PL	metacompose: a compositional evolutionary music composer	2016	5.3404010036589495	-8.408299636877443	3691114
3691424	Visualization	a distributed visualization module and its applications using tiled display wall	2010	6.055357807425418	-9.200494953440241	3691451
3691429	Graphics	a video-based system for hand-driven stop-motion animation	2013	5.245938258853529	-9.734700358831953	3691456
3692951	Visualization	hyper-navigation in virtual buildings	1993	6.164269220705326	-9.778318533201286	3692978
3693152	Theory	hyper-3d paintings in quick time vr: wunderkammer and hyperaesthesia	1999	6.230764889582982	-8.797995868734624	3693179
3693789	HCI	real-time user interaction with socio-physical systems	2018	5.1708802615159986	-9.694379292801061	3693816
3694729	Visualization	illusory motions on surfaces	2013	5.30470345912824	-9.50439728293926	3694756
3695011	AI	dynamic expansion of behaviour trees	2008	5.2868426159837965	-8.271195716770986	3695038
3695140	EDA	geometric reasoning tools for assembly-oriented cad	1998	5.616322922306904	-8.519517061693431	3695167
3695564	Vision	integrating copies obtained from old and new preservation efforts	2013	6.1144115691371335	-8.121277366429592	3695591
3695628	Graphics	computer graphics: the need for graphics design part one	1981	5.921580706750058	-9.09589691273824	3695655
3696571	Logic	combining neural networks for controlling non-player characters in games	2017	4.900900804601684	-8.262442181649934	3696598
3697227	Robotics	knowledge structure of virtual inhabitant for an alibi reasoning	2006	4.783910011997518	-8.944777005802104	3697254
3697951	Graphics	functionality representations and applications for shape analysis	2018	6.2493999236073865	-8.148859747555125	3697978
3698168	HCI	tabby: explorable design for 3d printing textures	2018	5.8421044343032085	-9.63519904615467	3698195
3698508	Graphics	cavast: the crows animation, visualization, and simulation testbed	2014	5.466584242567498	-9.5211539633866	3698535
3698625	AI	an emotion-based adaptive behavioural model for simulated virtual agents	2008	4.841283532696901	-8.490214575868753	3698652
3698743	HCI	virtual prototyping of shoes	2011	5.7873818947404345	-9.741715155457523	3698770
3698956	HCI	user-centred design and writing tools: designing with writers, not for writers	1992	6.094263835433277	-9.474166203953668	3698983
3699502	Graphics	animated construction of line drawings	2011	5.68804530507254	-9.71802148808822	3699529
3701232	NLP	a consensus approach to sentiment analysis	2017	5.062582278840819	-8.238983184529946	3701259
3702490	AI	towards the automatic generation of card games through grammar-guided genetic programming	2013	4.625190833722173	-8.056557423208718	3702517
3702568	Visualization	exploring 3d computer graphics in cockpit avionics	1993	5.813679204131986	-8.77789247862899	3702595
3702921	Graphics	3dvision: a program for display of three-dimensional wire models on a pc with vga display	1993	4.9809861673929765	-9.614719608241836	3702948
3703758	Vision	towards a general abstraction through sequences of conceptual operations	2011	6.073226293717245	-8.577743393318459	3703785
3705005	Visualization	a study for parametric morpho-semantic operators to assist architectural conception at the drafting stage	2006	5.914080477637957	-8.42586303608239	3705032
3705237	AI	towards learning processes in a resilient human-machine system	2010	4.582232142049833	-8.011130006886509	3705264
3706355	Graphics	realistic shading of human skin in real time	2004	5.9262260415219785	-9.179931636970478	3706382
3706789	HCI	graphical design of world map projections	2010	6.224344559828509	-8.363815156507096	3706816
3707299	Graphics	artistic path space editing of physically based light transport	2018	5.6534446690491125	-8.948100113433409	3707326
3707372	HCI	advanced drawing beautification with shipshape	2016	6.074957927422912	-9.404103977258854	3707399
3707565	AI	representational requirements for a plan based approach to automated camera control	2006	4.8582730978788655	-9.015428726734273	3707592
3710172	Graphics	a modern declarative surface shader for x3d	2010	6.149052638788785	-8.540807161437144	3710199
3711130	Vision	towards a deep reinforcement learning approach for tower line wars	2017	4.399171018251126	-8.049494181430468	3711157
3712864	AI	an integrated development environment and architecture for soar-based agents	2007	5.779887544066222	-8.897744557349991	3712891
3712871	AI	cutting glass	2000	5.493170019921795	-9.519259028888104	3712898
3712897	Visualization	virtual astronaut for scientific visualization - a prototype for santa maria crater on mars	2012	6.238164804466552	-8.470266931313562	3712924
3713023	ML	inmamusys: intelligent multiagent music system	2009	4.872177562699412	-8.635345931729294	3713050
3713758	EDA	the use of ct scans and 3d modeling as a powerful tool to assist fossil vertebrate taxonomy	2018	5.868484431121563	-7.966909319054567	3713785
3715085	HPC	digitization and 3d modeling of movable books	2005	6.161281730013331	-9.210188799361696	3715112
3715363	NLP	what is documentation? english translation of the classic french text by suzanne briet. translated and edited by ronald e. day and laurent martinet with hermina g.b. anghelescu, lanham, md.: scarecrow press, 2006, xi+72 pp, isbn 978-0-8108-5109-2	2008	4.749077781442939	-9.287213868442766	3715390
3716081	Visualization	function-based time-dependent shape modeling on the web	2005	5.997654209045116	-8.842062440033985	3716108
3717410	Visualization	v-hairstudio: an interactive tool for hair design	2001	5.626527383554686	-9.189378273750027	3717437
3717581	HCI	layout style modeling for automating banner design	2017	6.287772884443719	-9.304197782105467	3717608
3717807	AI	exploring a large space of small games	2014	4.876157658887101	-8.100835256537204	3717834
3718563	NLP	a procedural method for automatic generation of spelunky levels	2015	5.412474854933821	-8.413420224874303	3718590
3718862	Graphics	3d modeling of trees from freehand sketches	2003	5.918543872040802	-9.243949425411637	3718889
3719212	EDA	exploiting artistic cues to obtain line labels for free-hand sketches	2012	5.924803737259753	-9.386313784411461	3719239
3720271	Robotics	boa: a cognitive tactical picture compilation agent	2007	4.445374280198197	-8.355615620804581	3720298
3720587	Graphics	from early virtual garment simulation to interactive fashion design	2005	5.489215614468509	-9.592901995827251	3720614
3720821	Robotics	an efficient synthetic vision system for 3d multi-character systems	2003	4.4789485019320505	-9.425681377322832	3720848
3720869	Visualization	immersive virtual studio for architectural exploration	2010	6.171516107555063	-9.77177162435954	3720896
3721588	Graphics	interactive design of botanical trees using freehand sketches and example-based editing	2006	5.881538594937532	-9.348721470319651	3721615
3722213	Robotics	intelligent virtual environment and camera control in behavioural simulation	2002	4.527696621292867	-9.136657967707293	3722240
3722286	AI	an architecture approach for 3d render distribution using mobile devices in real time	2015	6.141803559400576	-8.341648939723678	3722313
3722581	EDA	ceramics fragments digitization by photogrammetry, reconstructions and applications	2014	6.211406727178669	-7.98244779390818	3722608
3722986	Robotics	towards artificial communication partners with 'kansei'	2006	4.841825759506593	-9.154214020372537	3723013
3724465	HCI	briar: a constraint-based drawing program	1992	6.01341103395656	-9.674103480784224	3724492
3725463	HCI	combining x-ray micro-ct technology and 3d printing for the digital preservation and study of a 19th century cantonese chess piece with intricate internal structure	2012	5.8957471126233045	-8.590882555692957	3725490
3726085	Robotics	collaboration among a group of self-autonomous mobile robots with diversified personalities	2004	4.9459244975061365	-8.083921486531668	3726112
3726538	Graphics	interactive light transport editing for flexible global illumination	2007	5.710485990335328	-9.354751417257734	3726565
3726668	NLP	wise-shopfloor: a web-based and sensor-driven shop floos environment	2002	6.217229959680137	-9.638220293969988	3726695
3726927	Vision	oriental color ink rendering for landscape	2005	5.708421756679082	-9.413891960499988	3726954
3726992	EDA	an implementation of a game engine for air combat simulation	2004	4.871646006808481	-8.445408803836576	3727019
3727125	Visualization	a constraint-solver based tool for user-assisted interactive 3d layout	2012	6.029772243478633	-9.708283083518293	3727152
3727918	Robotics	optimising robot personalities for symbiotic interaction	2014	4.419264819657641	-8.89255194032788	3727945
3729809	Robotics	design through cognitive color theme: a new approach for fabric design	2012	6.2929228615768364	-9.279710260296696	3729836
3730049	Graphics	graphics standards for three-dimensional modelling	1982	6.168867287041636	-8.653704625923035	3730076
3730179	AI	virtual space ontologies for scripting agents	2004	5.314698785058701	-8.80173071966322	3730206
3730764	Graphics	"""developing the interactive dynamic natural world of """"from dust"""""""	2011	5.7567434490200124	-8.830148965031137	3730791
3730915	DB	a hierarchically structured constraint-based data model for solid modelling in a virtual reality environment	2002	5.712013827583258	-8.40891157934135	3730942
3731257	HCI	dronecast: towards a programming toolkit for airborne multimedia display applications	2017	6.002409228385326	-9.51310693757067	3731284
3732515	AI	evolutionary and biologically inspired music, sound, art and design	2015	5.302101506488037	-8.347244214858916	3732542
3733035	EDA	layered shape grammars	2014	5.784034629300529	-8.845513309166556	3733062
3733488	HPC	large scale network situational awareness via 3d gaming technology	2012	5.638551178862298	-8.712624311019463	3733515
3733500	HCI	glaze: a visualization framework for mobile devices	2009	6.302920066796148	-9.68870671266612	3733527
3734238	Theory	user adaptive game characters using decision trees and fsms	2007	4.863133449146635	-8.422076837600361	3734265
3734779	Graphics	isoundscape: adaptive walk on a fitness soundscape	2011	5.174924105545207	-8.618606630269296	3734806
3736198	AI	the fl-system: a functional l-system for procedural geometric modeling	2005	5.792522463650289	-8.440128961614782	3736225
3736281	HCI	from computer games to interactive stories: interactive storytelling	2002	5.239801818899103	-8.170406856163419	3736308
3737126	AI	adaptive learning evaluation model for evolutionary art	2012	5.146942539386584	-8.449537322022486	3737153
3737540	HCI	relevance of 19th century continuous tone photomechanical printing techniques to digitally generated imagery	2003	5.738841543735084	-8.845599778979079	3737567
3737697	Visualization	the big one	2009	5.357714040913672	-8.164666155239907	3737724
3738181	Graphics	roll your own city	2008	5.879446976209388	-9.015074546115882	3738208
3738748	Graphics	recent methods for image-based modeling and rendering	2003	4.9341310815897685	-9.59632292847236	3738775
3738835	SE	a generic model framework for mout simulations	2006	6.1079187586898565	-8.652617582767473	3738862
3739182	AI	evolving stories: grammar evolution for automatic plot generation	2010	5.372412394764859	-8.35219313932054	3739209
3741051	AI	crowdsourcing hri through online multiplayer games	2010	4.480710947065915	-9.119383947295539	3741078
3741169	HCI	parts, image, and sketch based 3d modeling method	2006	5.332561839610662	-9.529806604415947	3741196
3741631	AI	evolving indirectly represented melodies with corpus-based fitness evaluation	2009	5.441041186710458	-8.605893193501254	3741658
3742397	AI	enhancing image-based aging approaches	2011	5.3842856218530715	-9.338147319854867	3742424
3742514	Graphics	real-time procedural generation of personalized facade and interior appearances based on semantics	2015	5.738730220230074	-9.201311147142444	3742541
3742873	Visualization	the utilization of virtual reality as a system of systems research tool	2018	4.381973176846038	-9.078526311674796	3742900
3742905	Graphics	automatic generation of hair motion of 3d characters following japanese anime style	2018	5.559795052648158	-9.569014318663447	3742932
3743001	EDA	d3: an immersive aided design deformation method	2009	5.5503763389510254	-9.523962038621976	3743028
3743532	PL	programming with time: cyber-physical programming with impromptu	2010	4.900166731770226	-8.768839266772149	3743559
3743548	EDA	a computational framework for concept generation and exploration in mechanical design	2000	5.769823578776433	-8.477053758159753	3743575
3744362	Mobile	real time access to multiple gps tracks	2013	4.565889211611285	-9.20123073752401	3744389
3744448	HCI	non-destructive digitization of soiled historical chinese bamboo scrolls	2018	5.606015377772101	-8.950615519224991	3744475
3744577	AI	an interaction-based model for situated agents	1998	5.016944771954677	-8.486784977066604	3744604
3744942	HCI	integrating web 2d and 3d technologies for architectural visualization: applications of svg and x3d/vrml in environmental behavior simulation	2006	5.315523638427836	-9.177934281847126	3744969
3745130	Embedded	aesthetic video filter evolution in an interactive real-time framework	2004	5.6246760212012195	-8.972928143718589	3745157
3748145	SE	shape optimisation using evolutionary techniques in product design	2007	5.575889433046728	-7.9859998473749325	3748172
3748256	AI	exploring ancient landscapes under lake huron using cultural algorithms	2011	4.840187638690802	-8.057910081140642	3748283
3748612	Graphics	three varieties of realism in computer graphics	2003	6.180194723690522	-8.51357412807679	3748639
3749645	Graphics	a low cost holographic display	2016	5.876406327436618	-9.168164759662224	3749672
3750383	HCI	remote touch interaction with high quality models using an autostereoscopic 3d display	2017	6.048914470414103	-9.746679193349859	3750410
3751399	Visualization	evaluating the use of virtual reality as a tool for briefing clients in architecture	2002	6.277603775174532	-9.398120649273906	3751426
3751788	Graphics	motion doodles: an interface for sketching character motion	2004	6.116668500123424	-9.433160959929175	3751815
3751911	Graphics	motion and behaviour modelling: state of art and new trends	1999	6.055521240210305	-8.888085771506372	3751938
3752332	Robotics	lvrs: the low vision research system	1994	6.210436627296617	-9.606633811590218	3752359
3753681	HCI	a novel approach to documenting artifacts at the gold museum in bogota	2011	6.033336533961824	-8.742891929986163	3753708
3755012	Visualization	dynamically changing road networks - modelling and visualization in real time	2004	6.005614117156163	-8.226579528010014	3755039
3755225	DB	modular design of media retrieval workflows using aria	2006	5.038020609466393	-9.515177966122893	3755252
3756243	Visualization	a tool for the interactive 3d visualization of electronic structure in molecules and solids	2002	5.370980823033358	-8.819116930299842	3756270
3756302	HCI	realistic visualization of accessories within interactive simulation systems for garment prototyping	2017	5.628868755162877	-9.39465338540392	3756329
3757083	HPC	a method of multiple-marker register and application on virtual education	2011	6.178489029479889	-9.62477722143434	3757110
3757122	Arch	cmas 3d, a new program to visualize and project major elements compositions in the cmas system	2009	5.595324575657604	-8.053566785672041	3757149
3757466	Robotics	gotta hatch 'em all!: robot-supported cooperation in interactive playgrounds	2017	5.0109350115266365	-8.28367612602201	3757493
3757987	PL	advanced sound hybridizations by means of the theory of sound-types	2013	5.484017826238578	-8.317100974784626	3758014
3758568	HCI	an internet-scale idea generation system	2013	5.587135347746184	-7.9635206879937375	3758595
3758855	Robotics	an advanced training environment for vessels' last mile navigation	2015	4.517794840427703	-8.927488314125176	3758882
3759240	Visualization	environ: a visualization system aimed at massive cad models	2008	6.001463720877093	-8.638695267351439	3759267
3759451	Mobile	developing an instructor support system for scenario-based training	2010	4.920604522469522	-8.907060046842282	3759478
3759910	Graphics	the sound of photographic image	2011	5.592933444070102	-9.069152287196154	3759937
3760948	Arch	inclusion of fabric properties in the e-textile design process	2009	5.5859239404036085	-9.565101044152208	3760975
3761500	AI	evaluating individual player strategies in a collaborative incomplete-information agent-based game playing environment	2006	4.4553137116284525	-8.01527373800149	3761527
3762252	Visualization	commodity-based projection vr	2004	5.990483998120942	-9.723178652625316	3762279
3762551	HCI	the thin glass line: designing interfaces to algorithms	1996	6.043489937064733	-8.752214926285246	3762578
3763157	HCI	group rotation type crowdsourcing.	2016	5.9988815348016615	-9.199232894479447	3763184
3763587	Robotics	speculative planning with delegation	2004	4.468877655903667	-8.602595851375701	3763614
3763614	Graphics	a simple heuristically-based method for expressive stimulus-response animation	1989	4.988403124962215	-8.607993212231063	3763641
3764380	Robotics	a multi-agent model of human mind based on mental image directed semantic theory for comprehensible communication between humans and robots	2004	5.0628203110101335	-7.908113592531513	3764407
3766020	SE	automatic test image generation using procedural noise	2016	5.540404399687712	-7.971372001735505	3766047
3766175	Visualization	a study on a radiation management system visualizing health risks from ionizing particles by cg technology	2001	5.002537423389693	-8.485088362203625	3766202
3766582	Graphics	data-driven detailed hair animation for game characters	2016	5.107273634264653	-9.536216903815431	3766609
3767401	SE	elegant object-oriented software design via interactive, evolutionary computation	2012	5.377377648710893	-8.256665096592718	3767428
3767505	HCI	3d game model and texture generation using interactive genetic algorithm	2012	5.88082699580302	-9.232760887825293	3767532
3768439	Graphics	three-dimensional representations for computer graphics and computer vision	1978	5.920828732973124	-8.565989807598024	3768466
3768646	Visualization	realistic placement of plants for virtual environments	2011	5.830105780138089	-8.60268603737926	3768673
3768694	Vision	advances on computer-based biological signal processing techniques	2008	4.486518662139917	-9.446727827513874	3768721
3769121	Visualization	iota: an approach to physically-based modelling in virtual environments	2001	5.535092891793538	-9.62207032546423	3769148
3771173	HCI	haptic interaction and interactive simulation in an ar environment for aesthetic product design	2009	6.07196660221306	-9.231481760215779	3771200
3771491	HCI	'forse fields' - force sensors for interactive environments	2002	4.58536211041557	-8.855286966652073	3771518
3771864	Vision	motion capture moves into new realms	2007	5.559998988043307	-9.54367185518219	3771891
3772214	Metrics	a simulation model to analyze the impact of distance and direction on golf scores	2009	4.8395470312874815	-8.776288774728327	3772241
3772781	SE	low-cost methods for generating panoramic views for a mobile virtual heritage application and its application to the heritage zone of george town malaysia	2011	5.480772823744219	-9.615835062466534	3772808
3773150	Graphics	interactive evolution of images.	1995	5.4469159936311575	-8.584606682902526	3773177
3773401	Visualization	growing virtual plants for virtual worlds	2008	5.892885581603278	-8.789764118031359	3773428
3773673	Vision	perceptually motivated sonification of moving images	2009	5.736300779358107	-9.446032495401152	3773700
3773700	HCI	3d printing and camera mapping: dialectic of virtual and reality	2015	5.8386212346967525	-9.340835487393848	3773727
3773785	NLP	ines: a reconstruction of the charade storytelling system using the afanasyev framework	2018	5.236687716594221	-8.149108437794554	3773812
3774067	HCI	composite mouse gestures: toward an easier tool for behavior authoring	2004	5.815246374634764	-8.928993542074265	3774094
3774861	Embedded	chuck norris rocks!	2009	4.3954749849869215	-8.027333518587909	3774888
3774886	AI	enhancing group cohesion in virtual communities of practice	2011	4.5786749336061385	-8.367185612400094	3774913
3775263	Visualization	the virtual reconstruction and daylight illumination of the panagia angeloktisti	2009	6.1104079322005616	-8.356231050650443	3775290
3776288	Robotics	using digital pens to program welding tasks	2007	5.345079824077064	-9.491483790551042	3776315
3777520	Graphics	color styling tools	2010	5.5696920160109675	-9.611237335612051	3777547
3778060	AI	virtual actors that can perform scripts and improvise roles	1997	5.5158886928943325	-8.775210134897451	3778087
3778384	Vision	video editing based on object movement and camera motion	2006	5.6079735573990215	-9.78144551370515	3778411
3778632	Robotics	irida: a real-time wireless sensor network visualization feedback protocol	2012	5.379218775964576	-9.744287727255543	3778659
3780926	AI	principle of least psychomotor action: modelling situated entropy in optimization of psychomotor work involving human, cyborg and robot workers	2018	4.604217073678657	-9.254991620178377	3780953
3783193	Visualization	combining point cloud technologies with discrete event simulation	2012	6.036843785985908	-8.489404480337821	3783220
3784887	HCI	digital latte art	2013	5.740123272619887	-9.290838121028743	3784914
3786097	Graphics	scenes of our imagination	1983	5.794107995352737	-9.067938215793284	3786124
3786236	HCI	shipshape: a drawing beautification assistant	2015	5.973736813766988	-9.497574920649383	3786263
3786472	Visualization	classification of the keyhole shaped tombs by template matching method	1978	6.043312362449571	-8.239829123172193	3786499
3786938	Graphics	interactive photomosaic system using gpu	2012	5.829363041344793	-9.421025700717207	3786965
3789977	Graphics	creating virtual environments with 3d printing and photogrammetry	2016	6.2220161839784485	-9.239187551651943	3790004
3790544	Visualization	an occlusion-reduced 3d hierarchical data visualization technique	2009	6.286445729203613	-8.64113800364949	3790571
3790636	Graphics	data-driven simulation methods in computer graphics: cloth, tissue and faces	2012	5.341030790462178	-9.289100739312897	3790663
3790827	AI	emotional attention in autonomous agents: a biologically inspired model	2012	4.96227592148994	-7.907131400266355	3790854
3791519	Robotics	ephemeral sandscapes: using robotics to generate temporal landscapes	2018	5.9758965060868325	-9.267891032593457	3791546
3791906	Visualization	post-processing of engineering analysis results for visualization in vr systems	2013	6.038397582378378	-8.815725226827405	3791933
3791943	AI	using semantics to improve the design of game worlds	2009	5.957999954972912	-8.705201497571096	3791970
3793835	AI	negotiations in the context of aids prevention: an agent-based model using theory of mind	2011	4.6107411796455375	-8.102255787728193	3793862
3794518	Robotics	robot, asker of questions	2003	4.3920025701053405	-9.678933683273264	3794545
3796207	AI	tanagra: reactive planning and constraint solving for mixed-initiative level design	2011	5.860830907963697	-8.721991951594688	3796234
3796340	HCI	cognitive model of team cooperation in en-route air traffic control	2010	4.3824508240315065	-8.67526858948895	3796367
3796594	HCI	player modeling using self-organization in tomb raider: underworld	2009	5.14715264047082	-7.995859764726572	3796621
3796628	Graphics	the iray light transport simulation and rendering system	2017	6.105312315645545	-9.044912452048973	3796655
3797573	Visualization	a road map to solid modeling	1996	5.836596552676536	-8.184266274530811	3797600
3797868	Robotics	online inference of human belief for cooperative robots	2018	4.454545328417692	-8.661805182639373	3797895
3798078	AI	ropossum: an authoring tool for designing, optimizing and solving cut the rope levels	2013	5.2394473365509295	-8.580006006617765	3798105
3798235	Visualization	unwrapping and visualizing cuneiform tablets	2002	6.073634049113088	-8.943604410640988	3798262
3798727	Graphics	motion editing with spacetime constraints	1997	5.959361599678893	-9.143421559721107	3798754
3799059	Graphics	an introduction to solid modelling	1984	6.0808917222668315	-8.564573521871571	3799086
3799104	EDA	user-adaptive sketch-based 3-d cad model retrieval	2013	5.748626312426678	-9.58049907374025	3799131
3799384	HCI	shader development at olm	2015	6.117444374230932	-9.367946024584073	3799411
3800157	Graphics	perceptual effects in real-time tone mapping	2005	5.022909951027536	-9.792099634355386	3800184
3800724	Graphics	lace curtain: rendering and animating woven cloth based on an impression-evaluation model	2013	5.185040577236656	-9.75406066820654	3800751
3803308	AI	real-time strategy gaines: a new ai research challenge	2003	4.409451035918164	-7.947098675349874	3803335
3803747	Graphics	emotional face expression profiles supported by virtual human ontology	2006	6.238183991742068	-9.471153138996707	3803774
3804184	Graphics	interactive 3d facial expression posing through 2d portrait manipulation	2008	5.298742041152367	-9.62487175785999	3804211
3804364	Visualization	craniux: a labview-based modular software framework for brain-machine interface research	2011	4.745278254636316	-9.716987814502334	3804391
3804465	HCI	alice and diver: a software architecture for building environments	1993	6.304344903303714	-9.385554750254826	3804492
3804474	Vision	affordance-based intention recognition in virtual spatial environments	2010	4.646858833824727	-8.68259485022086	3804501
3805137	AI	crowd simulation influenced by agent's socio-psychological state	2010	4.585413547228595	-9.301117125386947	3805164
3805384	AI	the reactive-causal architecture: towards development of believable agents	2008	4.855442753762047	-8.504068796686424	3805411
3805442	Visualization	perceptibility of clones in tree rendering	2010	5.660794534304227	-8.10666912187325	3805469
3805878	Vision	appearance bending: a perceptual editing paradigm for data-driven material models	2017	5.462926713672496	-8.895322429039364	3805905
3806087	Visualization	a faster technique for rendering meshes in multiple display systems	2003	6.1032704189575435	-9.193576746130237	3806114
3806162	Graphics	asynchronous rendering	2010	6.164226124115306	-9.225832880009524	3806189
3806216	Graphics	model predictive control for robust art-directable fluids	2016	5.328899363912078	-9.209862908837373	3806243
3806370	HCI	a virtual reality platform for modeling cognitive development	2005	4.625094781749828	-8.95078480065	3806397
3806662	Robotics	true color	2005	4.550320705427904	-8.996471819172822	3806689
3806943	PL	higher-order functions in aesthetic ec encodings	2010	5.295597989546089	-8.106366569943237	3806970
3806968	Robotics	transactive memory systems: a perspective on coordination in human-robot incident response teams	2009	4.5398511664766525	-8.960032058989267	3806995
3808468	HCI	computer-assisted archaeological line drawing	2011	6.28405442347679	-8.151756751197363	3808495
3808738	AI	constrained evolutionary art: interactive flag design	2009	5.359642509947271	-8.250298544368695	3808765
3809397	Visualization	integrating particle dispersion models into real-time virtual environments	2008	5.639902208840616	-8.29163984575168	3809424
3809905	AI	agents from reality	2005	4.578739030284312	-8.832919433198203	3809932
3810543	Graphics	layer-based procedural design of façades	2015	5.937471272287299	-8.342759350168876	3810570
3811078	AI	design space descriptions for logical generation of content	2016	5.640186915419843	-8.1871563975994	3811105
3811594	Visualization	exploring geo-scientific data in virtual environments	1999	6.2717443064760605	-8.761134370870977	3811621
3811685	EDA	design engineering and human computer interaction: function oriented problem solving in cad applications	2015	5.831486537399394	-8.2770872423455	3811712
3811962	Robotics	a recognition system for folding process of origami drill books	2003	4.663706440325332	-9.492576305486113	3811989
3813837	Visualization	guest editors' introduction: real-time interaction with complex models	2007	6.1804768558103325	-8.167324202795013	3813864
3814038	Graphics	the sum tool as a visual controller for image-based sound synthesis	2012	6.044903187191535	-8.908425221022307	3814065
3814564	HCI	optimized screen-space ambient occlusion in mobile devices	2016	6.079161722551925	-9.123440944963859	3814591
3814689	Graphics	rptextures: systematic layering for large texture generation	2017	5.899200373232442	-9.230260276650363	3814716
3815269	Graphics	packit: animating complicated character groups easily	2017	6.019780467289096	-8.925106757934962	3815296
3815376	EDA	a physical and numerical simulation strategy to understand the impact of the dynamics in air for the design of porous screens	2015	5.8964437434208765	-8.426812249493022	3815403
3816465	Theory	the trees of the jungle book	2016	5.864040625622133	-8.959733450123025	3816492
3816969	HCI	procedural dungeon generation analysis and adaptation	2017	5.621709679395275	-8.591539080891954	3816996
3817829	Logic	an experiment in automatic game design	2008	4.639006434139434	-7.942273117777277	3817856
3817835	Visualization	surveying, analysis and 3d modeling in archaeological virtual reconstruction: the inner colonnade of the naos of temple g of selinunte	2012	6.018002214917795	-8.204188319065564	3817862
3818623	HCI	using scribble gestures to enhance editing behaviors of sketch recognition systems	2012	6.152208330228538	-9.697629552776414	3818650
3818700	DB	a model for exploring virtual reality environments	2003	6.211525667058523	-8.961316142781888	3818727
3818767	AI	adaptive game ai for gomoku	2000	4.654352290991471	-8.197905088020931	3818794
3819139	Graphics	a programming approach for complex animations. part ii. reconstruction of a real disaster	1999	5.747003034096309	-8.464785585609496	3819166
3819319	Graphics	wrath of the titans: creating cg lava with advected sculpts	2012	5.568978167865062	-9.227044495785568	3819346
3819637	Graphics	a virtual human architecture that integrates kinematic, physical and behavioral aspects to control h-anim characters	2005	4.730179845033781	-8.922569583250574	3819664
3821729	Robotics	multimodal fusion, fission and virtual reality simulation for an ambient robotic intelligence	2015	4.4294110682441445	-9.332951292054263	3821756
3822722	DB	a new concept in high resolution internet image browsing	2006	6.302938419397621	-8.373734108476473	3822749
3823441	Robotics	procedurally generating game level with specified difficulty	2018	5.066165762666874	-8.34095093450923	3823468
3823575	HCI	specifying interaction surfaces using interaction maps	2003	5.76433167862738	-9.181572522897435	3823602
3824222	HCI	evolving families of shapes	2015	5.231384701273903	-8.061508760004614	3824249
3824396	Visualization	an overview of auditory display to assist comprehension of molecular information	2006	6.250985972248473	-8.31881307771704	3824423
3824486	Graphics	physically-based driven tree animations	2006	5.131957800023272	-9.649269402285585	3824513
3824997	AI	preprocessing of engineering drawings for 3d reconstruction	1990	5.32161916778453	-7.989392345611371	3825024
3825319	AI	cognitive science in the era of artificial intelligence: a roadmap for reverse-engineering the infant language-learner	2018	4.9518278141831065	-8.349228527826773	3825346
3825888	HCI	agent-assisted task management that reduces email overload	2010	6.233424032790087	-8.641097398920143	3825915
3826043	Robotics	3d cad modeling using automatically reconstructable assemblies	2007	5.271848284146727	-8.979023066193895	3826070
3826081	AI	network-based procedural story generation	2018	5.375414854851818	-8.478687052039925	3826108
3827533	EDA	an interactive co-evolutionary cad system for garment pattern design	2008	5.706482593124499	-8.478223759180286	3827560
3827571	AI	geowin - a system for creative pattern generation based on rules	2009	5.75551894536386	-8.142349458554861	3827598
3827939	Theory	modeling and rendering escher-like impossible scenes	1999	5.850467476451239	-8.671699870038454	3827966
3828020	AI	rpd-enabled agents teaming with humans for multi-context decision making	2006	4.4569207079508	-8.439029564260009	3828047
3828152	AI	miser: mise-en-scène region support for staging narrative actions in interactive storytelling	2017	5.806925005579723	-8.21173639432484	3828179
3828229	Graphics	digital anastylosis of the octagon in ephesos	2009	6.284019153326695	-7.915851394719048	3828256
3828423	Visualization	interactive illustrative rendering on mobile devices	2007	6.140810992744503	-9.582078327594768	3828450
3828595	Mobile	remote sensing archeological sites through unmanned aerial vehicle (uav) imaging	2016	6.183987683718738	-7.974603612243422	3828622
3831158	EDA	strat: a sketched-truss recognition and analysis tool	2008	5.245372929175707	-9.138582174023949	3831185
3831526	HCI	extraction of data from preprinted forms	1992	6.275528430944129	-7.967299672732793	3831553
3831595	Logic	xyz: a project in experimental geometric computation	1991	6.294214309750568	-7.890337529268107	3831622
3831728	Robotics	psycho-physical crowds	2013	4.555279512990262	-9.76410476481117	3831755
3832045	HCI	real-time visual representations for mixed reality remote collaboration	2017	6.065056031443268	-9.568155959156623	3832072
3832589	Visualization	using image-based modeling for exporting 3d content from second life	2009	5.869072383072378	-9.397869679026511	3832616
3833324	Graphics	interactive design of virtual worlds: combining procedural modeling with intuitive user control. (création interactive de mondes virtuels: combiner génération procédurale et contrôle utilisateur intuitif)	2014	5.791430289716348	-9.085256121723713	3833351
3833330	HCI	kinetic sound sculptures: stele and viola spezzata	1999	5.573048573433988	-8.665849281123036	3833357
3833836	Graphics	partonomies for interactive explorable 3d-models of anatomy.	1998	6.093193165254411	-9.175932651692627	3833863
3833901	HCI	animated impostors manipulation for real-time display in games design	2008	6.279851082038706	-9.552687793289786	3833928
3834429	Graphics	vector driven 2.5d printing with non-photorealistic rendering	2016	5.742971313088112	-9.416870570266449	3834456
3834568	Vision	adapting surface sketch recognition techniques for surfaceless sketches	2013	4.902199376429419	-9.692826480181758	3834595
3835122	Visualization	the distributed laboratory - an interactive visualization environment for electron microscopy and 3d imaging	1992	6.248805780102397	-7.991790979446822	3835149
3835488	HCI	swarm granulator	2004	5.0389346518910925	-8.136366325560354	3835515
3835866	Visualization	origami platonic solids	1996	5.9036741494512786	-9.107698658968523	3835893
3836259	NLP	computational origami: from flapping birds to space telescopes	2009	5.904530129467092	-8.773658282061263	3836286
3837700	Vision	high resolution colorimetric image browsing on the web	1998	4.4665172150860055	-9.22389608195006	3837727
3838628	Graphics	breathing life into shapes	2015	5.858901273948812	-9.188602343912539	3838655
3839495	AI	u-director: a decision-theoretic narrative planning architecture for storytelling environments	2006	5.143387949040672	-8.232135499876593	3839522
3839542	AI	plan-based character diversity	2012	5.221523222717719	-8.248013756206872	3839569
3839726	Robotics	action parsing and goal inference using self as simulator	2005	4.632979473635821	-8.22727825865687	3839753
3840707	Robotics	simhuman: a platform for real-time virtual agents with planning capabilities	2001	4.516060374333462	-8.924909206843145	3840734
3840759	Graphics	chinese sea punica granatum floral pattern synthesis	2018	5.6998536514017175	-9.31976695167833	3840786
3840870	AI	memory models for intelligent social companions	2012	5.4145904752516305	-7.941337118059797	3840897
3841020	Robotics	hua: an interactive calligraphy and ink-wash painting system	2005	5.836340590484966	-9.474703746876068	3841047
3841156	HCI	reading performance with large fonts on high-resolution displays	2004	5.9101092430063815	-9.016172273686257	3841183
3841460	Visualization	two simulation studies investigating means of human-computer communication for dynamic task allocation	1986	4.3783926024869535	-8.743425631298473	3841487
3842255	ML	circularity in neural computation and its application to musical composition	1995	5.9199807297594775	-8.580618924386098	3842282
3843520	Robotics	research and application of path-finding algorithm based on unity 3d	2016	5.6435282583962945	-8.386975530392734	3843547
3844343	Vision	augmented reality for automatic identification and solving sudoku puzzles based on computer vision	2015	6.104224756304977	-9.512599859570958	3844370
3844484	PL	the layout design language: a technique for generating layout plans	1996	5.948842533490117	-7.959150667045394	3844511
3845543	SE	drawing program of oil painting which based upon computer	2010	5.939530341358759	-9.119448464560039	3845570
3845854	AI	review: intelligent agents for computer games	2000	4.803247817605613	-8.041132588237469	3845881
3846873	HCI	perceptual issues for the use of 3d auditory displays in operational environments	2003	4.839796425816004	-9.148136595239404	3846900
3847194	Graphics	progress in rendering and modeling for digital planetariums	2010	6.1459860833712	-9.233581545364189	3847221
3847646	HCI	extending access through touch : a specification for a haptic graphic display	2007	5.864487544918783	-9.597478667276073	3847673
3847749	HCI	fashion projection mapping using basic modeling form	2015	5.747005381735065	-9.403736602131561	3847776
3847915	Graphics	realism in computer graphics: a survey	1987	5.98034242786013	-8.588849895329652	3847942
3849203	SE	evaluating the impact of the human-agent teamwork communication model (hat-com) on the development of a shared mental model	2013	4.695019313649693	-8.503521949917749	3849230
3849333	OS	multiple application opengl (mesa) support on glint boards	2000	5.3946330115322265	-9.72581513447824	3849360
3849689	AI	dificulty adjustment in tetris with time series	2016	4.460983599366131	-8.151676731893904	3849716
3850370	Graphics	motiongraphix: a 2.5d stereoscopic animation system on your ipad	2016	6.011551730158731	-9.332865918118387	3850397
3850524	ML	a hierarchical approach to generating maps using markov chains	2014	5.142099438063977	-8.132420696883802	3850551
3850843	Graphics	exploring rgb-d cameras for 3d reconstruction of cultural heritage: a new approach applied to brazilian baroque sculptures	2018	5.3521184566792215	-8.559485925284282	3850870
3850890	Graphics	level of detail based behavior control for virtual characters	2010	5.9279754942076135	-8.838199412382282	3850917
3851067	Vision	computer vision in the movies: from the lab to the big screen	2004	4.9793341578094426	-9.506378658118617	3851094
3851534	Graphics	behaviour transfer between expressive talking heads	2010	6.009067155099684	-9.27689273653554	3851561
3851696	Graphics	wysiwyg npr: drawing strokes directly on 3d models	2002	5.612122895401225	-9.694115698865977	3851723
3851744	EDA	constraint modeling for curves and surfaces in cagd: a survey	2007	5.757857747706527	-8.437238816006051	3851771
3853231	Visualization	vizsim technology helps find oil faster	1999	6.048414577900099	-8.526442721114973	3853258
3853269	AI	a task manager using an ontological framework for a harms-based system	2016	4.648500847650096	-9.285666818312436	3853296
3853662	AI	simulating mechanics to study emergence in games	2011	5.89195678222582	-8.719953735911247	3853689
3853704	HCI	drawing on the back of an envelope: a framework for interacting with application programs by freehand drawing	2000	6.288664501658772	-9.433252590684203	3853731
3853755	HCI	real-time physics-based ink splattering art creation	2013	5.656084857107617	-9.293265162320576	3853782
3854987	Robotics	model based evaluation and inspection of an advanced driver assistance system based spatial image acquisition sensor	2017	5.22140751064563	-8.792297848158183	3855014
3855419	Graphics	studies on artistic style of chinese ink deckle-edged paper-cutting animation	2018	5.935213721435003	-9.258412651608825	3855446
3855958	Visualization	a simple approach for point-based object capturing and rendering	2004	5.6105223199900065	-9.428845532020851	3855985
3857133	Graphics	flight simulation of butterflies and hypothetical morphology	2007	5.702634861187877	-8.994516351321765	3857160
3857157	Vision	gibson env: real-world perception for embodied agents	2018	5.407078326282182	-9.167262828337316	3857184
3859120	DB	balancing act: variation and utility in evolutionary art	2014	5.329323715509414	-8.380766584171491	3859147
3859343	Graphics	a survey of stroke-based rendering	2003	5.784419527450164	-8.885145026500052	3859370
3859543	HCI	an image-based approach to interactive 3d virtual exhibition	2007	6.065733152073308	-9.578323563028263	3859570
3859606	Metrics	development of a wake simulator for wind energy analysis	2015	6.039190990041694	-8.823972493681564	3859633
3860411	Theory	synthesis of problems for shaded area geometry reasoning	2017	5.868124775561309	-9.04514980244863	3860438
3861023	EDA	component image filing system for image synthesis	1990	6.156700131668592	-9.497258170488193	3861050
3861487	Visualization	from perspectiva artificialis to cyberspace: game-engine and the interactive visualization of natural light in the interior of the building	2009	6.169182718912446	-9.0305586099949	3861514
3862238	Graphics	effective toon ink rendering for episodic television	2003	5.976163173204508	-9.044698774997652	3862265
3863466	NLP	crossing boundaries: imaging innovations in art and science	2000	6.053497601313608	-8.931903692501233	3863493
3864676	HCI	enhancing a commercial game engine to support research on route realism for synthetic human characters	2011	4.386851688593145	-8.19490309051544	3864703
3864700	Graphics	a 3d studio production system with immersive actor feedback	2003	6.079298595194786	-9.753993397472756	3864727
3864795	Robotics	gathering and conceptualizing plan-based robot activity experiences	2014	5.042211256711103	-8.223110242202946	3864822
3867134	Visualization	distributed low-latency rendering for mobile ar	2001	6.227964129804749	-9.12997783716307	3867161
3867183	NLP	colour in flux: describing and printing colour in art	2008	5.801102700312401	-8.895709884205234	3867210
3867484	HCI	using intention recognition in a simulation platform to assess physical activity levels of an office building	2017	4.377074740020063	-9.572914474733278	3867511
3867669	HCI	emotion and motivation in cognitive assistive technologies for dementia	2018	4.633394379048245	-9.67204359509565	3867696
3868016	Visualization	three-dimensional static animation of computation-intensive 3d-algorithms	2008	6.1313242004443005	-8.089549188486648	3868043
3868195	Graphics	previewing techniques in raster graphics	1984	6.003008676949308	-9.029619333605984	3868222
3868246	Visualization	low cost virtual animation effects for sports broadcasting: mosaics, flags and big-sized flags	2011	5.361236928861139	-9.646709755783196	3868273
3868352	Robotics	intelligent interface design in virtual assembly	2001	4.824133744029815	-9.270542877886452	3868379
3869052	HCI	high-quality tactile paintings	2011	5.75349843703821	-9.684842130623586	3869079
3869147	Graphics	geometric modeling technology	1981	6.097482616455087	-8.380454075427656	3869174
3869449	AI	beatbender: subsumption architecture for autonomous rhythm generation	2008	5.200525069671784	-8.35401100414181	3869476
3870121	Graphics	creative orientations for interface design at do while studio	1995	5.956923206867148	-8.803424242567816	3870148
3871270	HCI	reflections on challenges and promises of mixed-initiative interaction	2007	4.6289706135663655	-8.649832605333147	3871297
3871715	Robotics	conceptual farm	2004	5.916783035592988	-9.050739801200578	3871742
3872155	Visualization	interaction-oriented system for vital framework	2012	4.854695640095351	-9.773668808122293	3872182
3872212	Vision	interactive modeling of muqarnas	2011	5.828458264168682	-8.586450932313522	3872239
3872351	Graphics	"""""""still i rise"""" painterly animation off the shelf"""	2002	5.927752314688684	-9.296553292845854	3872378
3872523	HCI	techniques for animation on microcomputers	1988	6.231601739112063	-9.106580481140039	3872550
3872655	ML	stroke-based stylization by learning sequential drawing examples	2018	5.705883729281085	-9.328038880756722	3872682
3873387	Visualization	geological visualisation with augmented reality	2012	6.214063276205311	-8.502221996549894	3873414
3873525	Graphics	a practical and controllable hair and fur model for production path tracing	2015	5.706134079325239	-8.903767346273309	3873552
3873730	AI	the malmo platform for artificial intelligence experimentation	2016	4.455410151293158	-8.428382007379993	3873757
3873882	HCI	design of a collaborative virtual environment for training security agents in big events	2017	4.719669838817987	-9.17307056717934	3873909
3874944	AI	evolution of architectural floor plans	2011	5.797401984397798	-8.0457950109442	3874971
3875010	SE	design patterns applied for game design patterns	2016	4.922155662467644	-8.159573880501425	3875037
3875705	DB	how users distinguish trees within a virtual environment	2018	6.1738729019260505	-8.709102617534676	3875732
3875785	AI	yavalath: sample chapter from evolutionary game design	2012	4.414564513092848	-7.9550428290363255	3875812
3877431	HCI	an interactive constraint-based approach to sudoku	2007	6.211484734562527	-7.971176078496909	3877458
3877878	Robotics	modeling metacognition for learning in artificial systems	2009	4.454754719211	-8.06804521034419	3877905
3879213	ML	curve analogies	2002	6.047850726214326	-8.911098573006699	3879240
3879388	HCI	a zooming concept for an interactive non-linear video authoring software	2012	5.655765076359503	-8.136057365558196	3879415
3879688	HPC	parallelizing the process of rendering 3d animations on the internet using java	1999	6.2940825157408655	-9.014805525711775	3879715
3879771	EDA	challenges and ideas in procedural modeling of interiors	2013	6.09577887822782	-8.489570585231915	3879798
3880192	NLP	running with cases: a cbr approach to running your best marathon	2017	4.615904968819062	-7.919648337183605	3880219
3881612	Vision	stereo vision: a java-based online platform	2009	5.8313222807458915	-9.239254762491006	3881639
3881794	AI	robocup as a spectator sport: simulating emotional response in the four-legged league	2008	4.504698381890983	-8.477114382181732	3881821
3882171	HCI	anima: an interactive tool for scientific data animation	1993	6.215976133895607	-8.841879675078783	3882198
3882268	Visualization	a virtual studio for live broadcasting: the mona lisa project	1996	5.602451031225331	-9.700130855252043	3882295
3882326	Vision	the effect of primitive sets on the expression of evolved images	2013	5.37404825005341	-8.439549688578236	3882353
3882612	Visualization	a vector field design approach to animated transitions	2018	6.031078545378042	-9.598690677299297	3882639
3882624	Vision	video analysis for cartoon-like special effects	2003	4.985479843735742	-9.73200548955	3882651
3882636	EDA	an optimized soft 3d mobile graphics library based on jit backend compiler	2005	6.2692769775957	-9.018232262889251	3882663
3883903	Robotics	an intelligent multi-blackboard cad system	1996	5.788726535962505	-9.302896079532575	3883930
3884768	Graphics	the pag crowd: a graph based approach for efficient data-driven crowd simulation	2014	4.4234539372432655	-8.885520228873123	3884795
3885638	Visualization	hybrid function-based shape modeling and web visualization	2006	6.034066091608738	-8.835167543758484	3885665
3885875	Graphics	creating animations of fluids and cloth with moving characters	2004	5.662459964004703	-8.75248409374808	3885902
3886547	Visualization	automated 3d model reconstruction from photographs	2014	5.982451542666628	-9.096232277990369	3886574
3886881	Visualization	populating semantic virtual environments	2014	4.920609331449276	-8.203021944267489	3886908
3887251	HCI	3d printing for rapid manufacturing: study of dimensional and geometrical accuracy	2011	5.591731367599821	-9.647237003309947	3887278
3888545	AI	imitation-based evolution of artificial players in modern computer games	2008	4.3910964454245764	-8.199571151222324	3888572
3889022	Vision	aliveness metaphor for an evolutive gesture interaction based on coupling between a human and a virtual agent	2016	5.101504469322912	-8.225286845927107	3889049
3889356	Vision	research on light field camera and music emotion recognition	2009	5.673640856448974	-9.635139030619623	3889383
3889371	Visualization	hand-based interface for augmented reality	2007	5.372004206995872	-9.46222080106592	3889398
3889646	Graphics	function-based shape modelling extension of the virtual reality modelling language	2006	6.028146804190465	-8.82755021113149	3889673
3890255	Visualization	visualization of biomolecular structures: state of the art revisited	2017	6.276445665262713	-8.270496445503976	3890282
3890306	Robotics	bor3d: a use-case-oriented software framework for 3-d object recognition	2012	4.454772029366456	-9.435908187184387	3890333
3891358	Visualization	imaging features in advanced graphics architectures (panel)	1996	6.111970496989825	-8.793381780330634	3891385
3891469	Robotics	the functional design method for buildings (fdm) with gamification of information models and ai help to design safer buildings	2018	5.943172118619708	-9.096078009165602	3891496
3892039	HPC	visualization of eclipses and planetary conjunction events: the interplay between model coherence, scaling and animation	2000	5.8634201470073695	-9.011104476627414	3892066
3892669	HCI	exploring solutions for the development methodology of the video game dababat	2018	5.858026639399282	-9.263956358925961	3892696
3893383	Graphics	a 2nd generation autostereoscopic 3-d display	1992	5.770200324338733	-8.691584539228318	3893410
3893573	AI	using virtual worlds to facilitate the exploration of ancient landscapes	2013	4.606885428846403	-8.185815897601596	3893600
3893714	AI	isreal: a platform for intelligent simulated realities	2010	5.284415983826087	-8.725800792871661	3893741
3893902	Vision	virtual unrolling and information recovery from scanned scrolled historical documents	2014	5.945884101539433	-8.172809784844265	3893929
3894145	Robotics	web based chinese calligraphy learning with 3-d visualization method	2006	5.813939522443305	-9.664869890977132	3894172
3894850	HPC	surgical model-view-controller simulation software framework for local and collaborative applications	2010	5.952016424974492	-9.035212631115217	3894877
3894989	Visualization	mireas: a mixed reality software framework for iterative prototyping of control strategies for an indoor airship	2010	4.780533394425581	-9.485324821485401	3895016
3895059	Visualization	emerging web graphics standards and technologies	2003	6.0863965882965045	-9.177200228660173	3895086
3895169	AI	a behavior language: joint action and behavioral idioms	2004	5.34515460213091	-8.61817968153686	3895196
3896445	NLP	commercial speech recognition technology in the military domain: results of two recent research efforts	2005	4.393317013785309	-9.580355558964676	3896472
3898929	Graphics	semi-automated human body 3d animator	2010	5.427820117114144	-9.652587711752057	3898956
3899085	AI	i know what i did last summer: autobiographic memory in synthetic characters	2007	5.195108643676124	-8.693604338289191	3899112
3899716	AI	robust player imitation using multiobjective evolution	2009	4.5984184195417015	-8.215879031147002	3899743
3900715	HCI	harold: aworld made of drawings	2000	5.566075053357791	-9.788770372051305	3900742
3900765	AI	modeling human-like decision making for virtual agents in time-critical situations	2010	4.739775295694657	-8.123006956167085	3900792
3900884	Robotics	pre-school children’s first encounter with a robot	2014	4.599605118203983	-9.545514285092985	3900911
3900970	HCI	modelling cognitive and affective load for the design of human-machine collaboration	2007	4.39243172232908	-8.661465914037471	3900997
3900995	HCI	interactive beautification: a technique for rapid geometric design	1997	5.507161734310454	-9.131807310407334	3901022
3901374	Visualization	the 3d sketch slice: precise 3d volume annotations in virtual environments	2009	5.5656515513309435	-9.589983258331703	3901401
3901586	HCI	real-time 3d video	2004	5.790340934033523	-9.110159795262172	3901613
3901786	Graphics	high image quality, interactive rendering on scalable parallel systems: an interim report on esprit project 6173 (desire)	1994	6.251318477093473	-9.539232623435698	3901813
3902264	Graphics	towards image based rendering in computer games	2009	5.960334425727846	-8.62824795861237	3902291
3902439	Graphics	a framework for image-based asset generation and animation	2015	5.470804714644859	-9.365509624678484	3902466
3902642	Arch	implementation and analysis of scalable display architecture for laparoscopy	2009	5.442487635812367	-9.708346586927767	3902669
3903319	Mobile	modeling conversational flows for in-store mobile decision aids	2018	5.647669393273407	-7.997262561693034	3903346
3904415	Robotics	a framework for perceptual functions of symbiotic computing	2008	4.976465399015887	-8.48552878646511	3904442
3904981	Robotics	procedural generation of stylized 2d maps	2007	5.655055027028288	-9.147831812386096	3905008
3906016	HCI	design of 3d and 4d apps for cultural heritage preservation	2017	6.15156354680425	-9.037490678791418	3906043
3906447	AI	evolving structures for electronic dance music	2013	5.778504710035005	-8.418403949431609	3906474
3907244	HCI	authoring motion cycles	2017	5.235123508191902	-9.626542584493066	3907271
3907926	Graphics	computer graphics 2.0: towards end-user-generated contents	2017	6.277696445344152	-9.502336733872689	3907953
3908348	Visualization	high-performance wide-area optical tracking: the hiball tracking system	2001	4.9313081971294865	-9.418461766441485	3908375
3910322	Visualization	special session on effective information presentation techniques	1980	6.2910145910709785	-9.384363285280086	3910349
3910456	AI	furtility: dynamic grooming for wolfman	2010	5.939636338296722	-9.113006234264043	3910483
3911596	AI	refining human behavior models in a context-based architecture.	2006	4.406462285185153	-8.179897803850565	3911623
3912150	AI	"""putting the """"human"""" into """"human behavior models""""."""	2008	4.5600733336823085	-8.130997246035097	3912177
3912281	AI	game ai is dead. long live game ai!	2007	4.746527641072207	-8.185697962621765	3912308
3912565	AI	formalising believability and building believable virtual agents	2015	5.228048584234088	-8.174213789357864	3912592
3913054	AI	personality-based adaptation for teamwork in game agents	2007	4.429384027833831	-8.118327994794962	3913081
3913233	Robotics	transformations between pictures from 2d to 3d	2000	5.777714640442232	-8.824665716957892	3913260
3913823	NLP	automatic plot generation framework for scenario creation	2018	6.220443203745997	-8.355707150081411	3913850
3914332	Robotics	development and evaluation of a 3d graphics design system based on simulated human immune system	2007	5.573141719931127	-8.59042178533788	3914359
3914344	ML	geographical address classification without using geolocation coordinates	2015	5.042561712374249	-8.236253711585075	3914371
3914896	Graphics	rethinking graphics and gaming courses because of fast ray tracing	2007	6.070626454274585	-8.777444836646213	3914923
3914984	HCI	from dust till drawn	2007	5.514729505252162	-9.610018290490542	3915011
3915084	Graphics	a color animation system: based on the multiplane technique	1977	5.705858083524662	-9.622006658858496	3915111
3916289	Graphics	ryan: rendering your animation nonlinearly projected	2004	5.562028960236027	-9.418519599507835	3916316
3916850	Visualization	editing heightfield using history management and 3d widgets	2009	5.9366660571052	-9.638159446460914	3916877
3918232	AI	participatory, embodied, multi-agent simulation	2006	4.613131622577359	-8.550530945829925	3918259
3918532	AI	an integrated architecture for intelligent agents	1991	4.393570983957217	-8.41017148500111	3918559
3918787	Robotics	an approach to human-robot networking based on a multi-agent mind model	2005	5.041443711464599	-8.202163777540513	3918814
3919088	Graphics	kokubunji cliff line	2010	5.7576913120521445	-9.26950299464512	3919115
3919414	AI	swarmart: interactive art from swarm intelligence	2004	5.775948677914682	-9.239074653998708	3919441
3919597	Graphics	holly: a drawing editor for designing stencils	2010	5.592618190350948	-9.530924018214764	3919624
3920210	HCI	volumetric modeling of artistic techniques in colored pencil drawing	1999	5.768051812317322	-9.146380161108253	3920237
3920274	HCI	flocking in interpretation with visual art design principles	2017	5.348937786712273	-8.3516216787894	3920301
3920374	Visualization	interactive sculpting using augmented-reality, mesh morphing, and force feedback: force-feedback capabilities in an augmented reality environment	2018	5.4499249788209685	-9.774457672072762	3920401
3921823	Graphics	sketch-based 3d hair posing by contour drawings	2017	5.211731479026686	-9.784984626746336	3921850
3922474	Graphics	andymmo: animation of the dynamics of mechanical and control models	1996	5.450138358172044	-9.576701208798148	3922501
3923051	Visualization	use of shader technology for realistic presentation of train prototypes in virtual reality	2006	5.997543286220323	-8.579203500121773	3923078
3923089	Graphics	web-based shape modeling with hyperfun	2005	6.097011182592259	-8.782943992161968	3923116
3923278	AI	feeling the ambiance: using smart ambiance to increase contextual awareness in game agents	2011	4.8290220019252965	-8.747786107786991	3923305
3924233	Robotics	graphical operator interface for space telerobotics	1993	4.51469942126135	-9.643040330360488	3924260
3924522	Robotics	lego mindstorms cheerleading robots	2002	4.527825271620091	-9.101335717824025	3924549
3924970	HCI	towards visual-bandwidth: getting close to one's experiment data	2006	6.172113085874862	-8.820120436219664	3924997
3925036	Graphics	magical face: integrated tool for muscle based facial animation	2002	5.877864203204783	-9.347831980694616	3925063
3925079	Graphics	layered solid texture synthesis from a single 2d exemplar	2009	5.678437975521923	-9.01559655994348	3925106
3925345	AI	teaming up humans with autonomous synthetic characters	2008	4.915719600973554	-8.427249301644066	3925372
3925376	Vision	estimating the location of illuminants in realist master paintings computer image analysis addresses a debate in art history of the baroque	2006	6.031458304541662	-8.173749796003813	3925403
3926204	Robotics	understanding complex systems using video narratives the implementation and evaluation of the simulation visualization lab	2008	6.165397274652113	-8.705113228109129	3926231
3926453	Graphics	mims: web-based micro machining service	2005	5.571373197730602	-9.794494426390733	3926480
3926530	AI	a semantic map as basis for the decision process in the www navigation	2001	5.184567306700284	-8.074161494027356	3926557
3926537	Graphics	integration of optimization by genetic algorithms into an l-system-based animation system	2001	5.403717032892366	-8.50954073994117	3926564
3927903	HCI	a genetic programming framework for 2d platform ai	2018	4.720058583191699	-8.252760475594899	3927930
3928371	EDA	cad tools for aesthetic engineering	2005	6.038982674601152	-8.91126495234712	3928398
3929374	AI	hierarchical pnf networks - a temporal model of events for the representation and dramatization of storytelling	2009	5.997216662504617	-8.528590125842596	3929401
3931335	Robotics	research on product image styling design method based on neural network and genetic algorithm	2008	5.744775700607655	-8.495012916692716	3931362
3932114	AI	associating visual textures with human perceptions using genetic algorithms	2010	5.243952336062756	-8.396466473983715	3932141
3932206	Visualization	computer-aided staging	1999	5.963123814454571	-9.421926108378326	3932233
3934003	NLP	from math comes beauty: monkey curves, spirals, and saddles	1991	5.951104927780435	-7.9510584942400655	3934030
3934076	HPC	high-resolution presentation environment using multi displays	2008	5.572305005005467	-9.706815256130133	3934103
3934275	HCI	aesthetic information collages: generating decorative displays that contain information	2001	6.2134684174319466	-9.314194715077829	3934302
3934658	HCI	3d printing and camera mapping - artwork: digital buddha	2016	5.945494525309851	-9.251294857918484	3934685
3935214	Visualization	abstract camera controller for three-dimensional visualizations	2011	6.283999061637022	-9.222981706517487	3935241
3936375	Graphics	paint-on-glass animation: the fellowship of digital paint and artisanal control	2011	5.734776047281043	-9.736021445857666	3936402
3937552	HCI	surface drawing: creating organic 3d shapes with the hand and tangible tools	2001	5.7867103682788965	-9.711945856667073	3937579
3939885	HCI	nemesys: neural emotion eliciting system	2005	5.348475580323487	-8.07535716138696	3939912
3940053	HCI	an occlusion-aware ar authoring tool for assembly and repair tasks	2012	5.578077111940818	-9.735689725852069	3940080
3940323	HCI	intuitive 3d cubic style modeling system	2015	5.672537991590068	-9.441340452127577	3940350
3940820	HCI	on visual features and artistic digital images	2013	6.025959553768242	-9.60744366697732	3940847
3940835	Visualization	injection, detection and repair of aesthetics in home movies	2005	6.124516291302746	-9.451417231111863	3940862
3941019	Graphics	real-time generation of l-system scene models for rendering and interaction	2009	5.715372026057912	-8.493786002860919	3941046
3941472	Visualization	a method of representing the solid design process	1985	6.268883654807451	-8.182896265416149	3941499
3942045	ML	a biologically inspired model for describing the user behaviors in a cultural heritage environment	2014	4.988855940358059	-7.9553663430325	3942072
3942186	Graphics	abstraction paradigms for computer graphics	1995	6.091172414553387	-8.247855132539765	3942213
3943897	Visualization	evolutionary control of lsystem interpretation	2004	5.1975082735274265	-8.455336746182702	3943924
3944331	Visualization	collaborative virtual environment to study aircraft evacuation for training and education	2012	4.4193218159737615	-9.586679994000797	3944358
3944333	Graphics	interactive cutaway illustrations	2003	5.792536138486978	-9.177121830075182	3944360
3944844	SE	complexity: the dark side of network-centric warfare	2012	4.999073408376347	-8.271684131246591	3944871
3945362	HCI	dynamic game difficulty balancing for backgammon	2011	4.643820949212451	-8.172995433401114	3945389
3945401	Graphics	living canvas	2004	5.814051397934017	-9.382808754542276	3945428
3945845	Graphics	motion grammars for character animation	2016	4.630417413984725	-9.760399037920118	3945872
3946354	SE	implementation of player position monitoring for tanjung pura palace virtual environment	2017	6.136174469734647	-9.491703160998897	3946381
3946463	Graphics	images from computers and microfilm plotters	1969	6.225289480824531	-8.430531050933768	3946490
3946962	Visualization	joint interactive visualization of 3d models and pictures in walkable scenes	2012	5.734794764736261	-8.902786704325429	3946989
3947251	Robotics	a resolution independent nonrealistic imaging system for artistic use	1998	5.415588845129043	-9.681439129351354	3947278
3947840	HCI	explorations of new visual systems	1999	6.221658544697727	-8.23332488968143	3947867
3948046	Graphics	an emotion model for virtual agents with evolvable motivation	2011	4.961399302642047	-8.321138864465253	3948073
3949212	Graphics	a conversational extensible system for the animation of shaded images	1976	6.257753924206218	-9.215905505010054	3949239
3949576	Graphics	the art and technology of hair simulation in disney's moana	2017	5.8171376321741475	-9.174151539237231	3949603
3950875	Graphics	a fully immersive virtual model to explore archaeological sites	2016	6.081430971666805	-9.669184435127173	3950902
3951996	AI	fundamentals of artificial intelligence in game development	2000	4.712245430732468	-8.053404449911723	3952023
3952421	Graphics	an experimental digital interactive facility	1977	6.000123270874095	-8.172325165544763	3952448
3952713	Robotics	mixed-initiative human-robot interaction: definition, taxonomy, and survey	2015	4.512991463839472	-9.300330574004033	3952740
3952743	AI	monsters of darwin: a strategic game based on artificial intelligence and genetic algorithms	2017	4.660229183692904	-8.049910700149484	3952770
3953097	EDA	intuitive structures: applications of dynamic simulations in early design stages	2010	4.804121897993466	-8.345903980996331	3953124
3953185	AI	natural language explanations in human-collaborative systems	2017	4.5044147877508784	-8.76945229673661	3953212
3953669	AI	planning fitness training sessions using the bat algorithm	2015	4.595746411705627	-8.008035944338321	3953696
3955317	AI	clic: an agent-based interactive and autonomous piece of art	2010	5.4068709214083865	-8.72846475745718	3955344
3955458	HCI	factored displays: improving resolution, dynamic range, color reproduction, and light field characteristics with advanced signal processing	2016	5.577228197935492	-9.529725187745477	3955485
3955654	HCI	evolving line drawings	1993	5.447701897501383	-8.519372398581039	3955681
3956298	Visualization	workflows and challenges involved in creation of realistic immersive virtual museum, heritage, and tourism experiences: a comprehensive reference for 3d asset capturing	2017	6.269107937740262	-8.85551339799765	3956325
3956480	AI	from sequence to trajectory and vice versa: solving the inverse qtc problem and coping with real-world trajectories	2014	4.655287300642369	-9.058749046541626	3956507
3956653	HCI	180 x 120: designing alternate location systems	2007	5.70758968042774	-9.65530105626449	3956680
3957548	Logic	techniques for versatile spatial-audio reproduction in time-frequency domain ; tekniikoita monipuoliseen tilaäänen toistamiseen aika-taajuusalueessa	2014	6.10081851016863	-8.040029593995055	3957575
3957680	Robotics	incremental and situated modeling for multi-agent based simulations	2010	4.746253065343053	-8.366946001501999	3957707
3957774	HCI	cliplets: juxtaposing still and dynamic imagery	2012	5.680019867207043	-9.350184845809617	3957801
3958186	AI	a hierarchical reinforcement learning based artificial intelligence for non-player characters in video games	2014	4.635360773081798	-8.383993573343862	3958213
3959500	Robotics	a labanotation editing tool for description and reproduction of stylized traditional dance body motion	2011	6.104751990559598	-9.776027417134447	3959527
3959810	Robotics	a transparent and decentralized model of action for intelligent virtual agents	2012	4.688476575487284	-8.834611024862463	3959837
3960936	HPC	efficient mesoscopic simulations for persistent agents in 3d-applications and games	2013	4.5815193282025195	-8.900623554298363	3960963
3961187	AI	rethinking texture mapping	2017	5.941525461767969	-9.010658468550641	3961214
3961973	Graphics	dynamics and dodos: rigging and animation methods for ice age	2002	6.0440830385140405	-8.76013562293263	3962000
3962096	Graphics	rendering techniques of final fantasy xv	2016	5.7268980181620766	-9.242783531887586	3962123
3962097	Graphics	virtual humans for validating maintenance procedures	2002	5.159943088116092	-9.279505135005678	3962124
3962734	HPC	three-dimensional visualization of fluid dynamics on the responsive workbench	1999	5.922453625761692	-9.094351443077313	3962761
3963006	HPC	study on virtual camera with preset shot types based on composition aesthetic computing	2017	5.9491958006225545	-9.486646558852003	3963033
3964187	HCI	sketchstudio: rapid prototyping tool for 2.5d animated design scenarios	2018	6.3026802796043	-9.593415386919915	3964214
3964264	AI	a knowledge-based scenario framework to support intelligent planning characters	2005	4.951729081020736	-8.354817431323633	3964291
3964309	DB	choosing the infrastructure for entertainment and serious computer games - a whiteroom benchmark for game engine selection	2013	5.748107239135653	-8.232521616142177	3964336
3966208	AI	multiagent social influence detection based on facial emotion recognition	2016	5.375647128209191	-8.098173887227889	3966235
3966956	HCI	scanalog: interactive design and debugging of analog circuits with programmable hardware	2017	6.109896102532963	-8.819732295220769	3966983
3967267	AI	affordance-based human-robot interaction	2006	5.341553987696566	-7.942752070037145	3967294
3967515	HCI	sculplexity: sculptures of complexity using 3d printing	2013	5.855039186132923	-9.6838075811392	3967542
3968391	Graphics	foreword to special section on advances in procedural modeling	2013	5.764458905535705	-8.427328412670894	3968418
3968700	Visualization	simple and efficient tools for virsculpt	2006	5.9264663074333725	-9.08335485301368	3968727
3969055	Robotics	emergent behaviour real-time programming of a six-legged omni-directional mobile robot: strategy of viennese waltz behaviour	2006	4.7283298012216415	-9.104407270997068	3969082
3971412	HCI	design and implementation of a virtual reality system and its application to training medical first responders	2000	4.7840083001946105	-9.350983000309137	3971439
3972466	Robotics	rendition techniques for hdr scenes in painting, photography, and electronic imaging	2016	5.26268590907188	-9.172624712464792	3972493
3973269	Visualization	parallel graphics and visualization	2005	6.114858040230009	-8.275094708637944	3973296
3975077	Graphics	generating ambient behaviors in computer role-playing games	2006	6.224903603473075	-8.820975758736116	3975104
3975126	Graphics	runtime implementation of modular radiance transfer	2011	6.132590934935423	-9.096669563832453	3975153
3975201	AI	supporting collaborative activity	2005	4.943510625073737	-7.892647937770271	3975228
3975839	HCI	automated conversion of mechanical engineering drawings to cad models: too many problems?	1988	5.990330372230844	-8.419119735287099	3975866
3976960	Graphics	bibigi (theremin based on computer-vision technology)	2007	5.855079691864332	-9.604557417397972	3976987
3977320	Graphics	creative art and custom interior design in the 80's	1980	5.979614234145813	-9.745157663871703	3977347
3977693	HCI	constrained level generation through grammar-based evolutionary algorithms	2016	5.461791978162576	-8.46263930940895	3977720
3978010	HCI	blockparty 2: visual procedural rigging for film, tv, and games	2013	5.939571128695094	-9.391135936975251	3978037
3978024	AI	ai-based animation for interactive storytelling	2001	5.1838542234665	-8.464429503609141	3978051
3978334	Graphics	creating real-time animated interfaces with stimulus-response demonstration	1995	5.4940974504045945	-9.367927825801805	3978361
3978403	HCI	finished musical scores from the keyboard: an expansion of the composer's creativity	1983	6.210442427455587	-9.213277426618667	3978430
3978574	AI	generative design exploration framework based on subjective evaluation	2011	5.48325503059429	-8.220000614056538	3978601
3978625	Visualization	rapid scene modelling, registration and specification for mixed reality systems	2005	5.8419730845895215	-9.527853526484288	3978652
3978701	HCI	3-d displays for real-time monitoring of air traffic	1995	4.613847420262486	-9.387168168884648	3978728
3979703	HCI	procedural city layout generation based on urban land use models	2009	5.940402738125257	-8.536157821969113	3979730
3980319	AI	an ontology design pattern for supporting behaviour arbitration in cognitive agents	2016	4.441778046456559	-8.842904648535582	3980346
3981343	Robotics	behavioural plasticity in evolving robots	2016	4.528143323167303	-7.966776398144059	3981370
3981727	HCI	method for procedural 3d printing using a python library	2016	5.8056604051085445	-9.007591813054894	3981754
3981853	AI	a review of computational intelligence in rts games	2013	4.394798031002448	-7.9377072760822305	3981880
3982014	SE	data management for animation of construction processes	2010	5.956888432988737	-8.176176930117128	3982041
3982814	Web+IR	musical genre classification by means of fuzzy rule-based systems: a preliminary approach	2011	5.319477870612908	-8.427972711730389	3982841
3982908	Graphics	device synchronization using an optimal linear filter	1992	4.938174179755493	-9.542911618952033	3982935
3983049	Robotics	eye specular highlights telltales for digital forensics: a machine learning approach	2011	5.435834720333063	-9.016184857739225	3983076
3983289	AI	runtime behavior adaptation for real-time interactive games	2009	4.536810519081033	-8.181377922281714	3983316
3983490	AI	planning-based narrative generation in simulated game universes	2009	5.137347303392978	-8.242100673844158	3983517
3983833	Visualization	vtk4ar: an object oriented framework for scientific visualization of cae data in augmented reality	2006	6.249972225205219	-8.25251735979342	3983860
3984737	Robotics	complex decision making experimental platform (codem): a counter-insurgency scenario	2011	4.4688623359262305	-8.442739292102042	3984764
3984823	HCI	visually directing user's attention in interactive 3d environments	2004	6.298967916036383	-9.47223099041262	3984850
3985315	Graphics	advanced graphics for visualization of shielding relations	1988	6.1816026147959215	-8.860936408296144	3985342
3986860	AI	there's always hope: enhancing agent believability through expectation-based emotions	2009	4.991593714590151	-8.194945543017361	3986887
3988019	Graphics	reforming shapes for material-aware fabrication	2015	5.676567936936674	-9.056663226143208	3988046
3988518	Graphics	webgl-based streaming and presentation framework for bidirectional texture functions	2011	6.019237819032483	-9.025937978193149	3988545
3988612	Visualization	getting to the point...?	2006	6.274765237977255	-8.36111886924465	3988639
3989013	EDA	convergence synthesis of dynamic frequency modulation tones using an evolution strategy	2005	5.315778585894443	-8.537261625632558	3989040
3989696	Robotics	generative 3d images in a visual evolutionary computing system	2010	5.577683016063547	-8.600797217942668	3989723
3990143	AI	general video game rule generation	2017	4.762504252104293	-8.063960620666215	3990170
3991039	Robotics	reactive pedestrian path following from examples	2004	4.469185667389924	-9.612686898375962	3991066
3991288	AI	the model-based mind	2000	4.497041139002802	-8.49273221941519	3991315
3991752	HCI	simulation and heuristics in flexible tool use	2017	4.4610134152638485	-8.535183131647342	3991779
3991963	Visualization	device logic and program structures in mixed reality simulation environments	2005	5.608105415784942	-9.341419593295539	3991990
3992354	HCI	function and form of visual effects in animated films	1999	5.855705332465473	-8.921927975312203	3992381
3992909	Graphics	image-based rendering: really new or déjà vu? (panel)	1997	5.901245581632714	-9.036780292387757	3992936
3993053	Graphics	escher sphere construction kit	2001	5.285526503806674	-9.620177840381483	3993080
3993312	SE	a low-cost method for generating panoramic views for a mobile virtual heritage application	2011	5.317240916053863	-9.76799553652311	3993339
3993455	SE	an evaluation of different evolutionary approaches applied in the process of automatic transcription of music scores into tablatures	2016	5.333914656373586	-8.543354492848934	3993482
3994108	EDA	modeling 3d garments by examples	2014	5.411418425659038	-9.544489561297995	3994135
3994352	Visualization	modeling of events caused by fire for virtual reality based on structured event frame	2007	5.1840054991669255	-9.098942496718315	3994379
3994446	AI	planning actions with social consequences	2007	4.418267165080928	-8.233529741234728	3994473
3995006	AI	in search of patterns: disrupting rpg classes through procedural content generation	2012	4.626808129647863	-8.044428362062568	3995033
3995039	Robotics	the social-cognitive dynamics of metaphor performance	2008	4.769416297798661	-8.00411210474262	3995066
3996066	Graphics	digital styling for designers: 3d plane-symmetric freeform curve creation using sketch interface	2003	5.885730284329764	-9.125582260279458	3996093
3996138	AI	alife for real and virtual audio-video performances	2014	5.252061885528996	-8.626736734871786	3996165
3997860	Graphics	realistic, real time shading and rendering of objects with complex materials	2003	5.795192288074127	-8.61050215123577	3997887
3998581	HCI	automatic content generation in the galactic arms race video game	2009	5.006415243694919	-8.261957791952886	3998608
3999440	AI	decision-theoretic personality-based reasoning about turn-taking conflicts	2018	5.119068404772729	-7.930511402951584	3999467
4000422	Robotics	i comici roboti: performing the lazzo of the statue from the commedia dell'arte	2002	4.452200894054084	-9.50209203348717	4000449
4000771	Robotics	a cognitive architecture for social robots	2018	4.627075321401177	-8.67021869398131	4000798
4001262	AI	informed virtual geographic environments: a geometrically precise and semantically enriched model for multi-agent geo-simulations	2011	4.842521481723497	-8.054985513475723	4001289
4001267	Graphics	populating the crowds in ferdinand	2017	5.640390486915593	-9.217633283048027	4001294
4001374	Graphics	a rule-based approach to animating multi-agent environments	1996	5.616331284050422	-8.648286970964849	4001401
4001459	Graphics	and-or graph face model and its applications in artistic sketching and aging simulation	2015	6.118650481883615	-8.475049052230249	4001486
4001575	AI	user interaction with an automated solver: the case of a mission planner	2004	4.540607160863213	-8.87750831029102	4001602
4001762	AI	ai for dynamic team-mate adaptation in games	2010	4.5884805885027635	-8.31553013199774	4001789
4001941	AI	using time use surveys in multi agent based simulations of human activity	2017	4.518329946624959	-8.875502368411887	4001968
4002023	HCI	postmortem stylization of open-source games	2012	5.785829138572494	-9.366610820519217	4002050
4003382	HCI	brand consciousness as a driving design force	2007	5.627867267147797	-9.676670664363114	4003409
4004236	AI	a constrained genetic algorithm for line labelling of line drawings with shadows and table-lines	2013	5.998730403315718	-9.107682553338687	4004263
4005764	Graphics	takashi's seasons	2006	5.854918521648179	-9.602239156137447	4005791
4006806	Graphics	example-driven animation synthesis	2008	5.899013699052081	-9.509327438711507	4006833
4007137	Graphics	faceengine a 3d facial animation engine for real time applications: a 3d facial animation engine for	2001	6.229946204831214	-9.760206862506546	4007164
4007348	HCI	incorporating a runtime interactive visualization into intelligent agent	2002	4.923656906260809	-8.657966769844839	4007375
4007739	ECom	fun with fonts: algorithmic typography	2015	6.145227338979254	-8.766886537462225	4007766
4008447	AI	billiards: an optimization challenge	2011	4.427628428088871	-8.431894655054416	4008474
4009173	HPC	rapid prototyping of virtual environments	2000	6.275162217636409	-9.000713759936916	4009200
4009179	HPC	the blue-c distributed scene graph	2003	6.2228555324280475	-9.43756556403275	4009206
4009300	Theory	designing effective pictures: is photographic realism the only answer?	1988	5.831619933298434	-9.222115960161402	4009327
4010200	Vision	adaptable aging factory for multiple objects and colorations	2010	5.2981582923401165	-9.041828678553555	4010227
4010349	Vision	evaluating the perception of different matching strategies for time-coherent animations	2015	5.309121247296052	-9.67809309125312	4010376
4011258	AI	addressing the fundamental tension of pcgml with discriminative learning	2018	5.2256641916822755	-8.197875113395172	4011285
4012629	AI	autonomous virtual humans and lower animals: from biomechanics to intelligence	2008	4.6894233289271465	-8.04057624269703	4012656
4014460	AI	adapting in-game agent behavior by observation of players using learning behavior trees	2014	4.78342765097301	-8.228052196905466	4014487
4014468	Vision	promoting creative design in interactive evolutionary computation	2012	5.2627010373657885	-8.316466884949088	4014495
4015413	Robotics	an integrated environment blending dynamic and geometry models	2004	5.911119187340454	-8.747329142486779	4015440
4017381	Graphics	self-animating images: illusory motion using repeated asymmetric patterns	2008	5.140713179092322	-9.624209814025331	4017408
4021129	Graphics	state of the art in methods and representations for fabrication-aware design	2017	5.6679647712059475	-8.724598680156024	4021156
4021252	NLP	evolving story narrative using surrogate models of human judgement	2012	5.548485001168888	-7.970353053142231	4021279
4022160	HPC	scientific visualization environments for the computational sciences	1989	6.170658571325767	-8.149954033475879	4022187
4022493	ML	using 3d scanning to analyze a proposal for the attribution of a bronze horse to leonardo da vinci	2007	6.068515366904928	-8.33490968223021	4022520
4023066	SE	reverse engineering of scale models using dataflow programming: application to the fortification of plans-reliefs	2013	6.235786246681569	-7.944681260314255	4023093
4023152	Graphics	water simulation by merge-split method based on state	2002	5.400790755339969	-8.72244698388959	4023179
4023829	Visualization	generating 3d building models from architectural drawings: a survey	2009	5.7717536972749635	-8.3764559268678	4023856
4025267	Visualization	petri net-based vr model interactive behaviour specification and control for maintaining training	2009	4.742278507780925	-9.217975188929278	4025294
4026851	Robotics	a machinima system based on network game	2017	6.202646711956603	-9.538688729262	4026878
4027499	HCI	varying display size and resolution for digitizing vector and raster targets: a study of digitizing performance on multiple-monitor high-resolution displays	2009	5.575158534377526	-9.443566831985978	4027526
4028056	AI	darwinian pianos: realtime composition based on competitive evolutionary process	2013	5.481397434180006	-8.646941466362957	4028083
4028105	Visualization	super tex-sim: interactive textile design and simulation	1994	5.981376933896983	-9.170183001748546	4028132
4028462	Vision	what colour is it? modal and amodal completion of colour in art, vision science and biology	2010	6.167661170760107	-8.551618646753036	4028489
4029687	Graphics	generating predictable and convincing folds for leather seat design	2009	5.617615472733797	-9.506793594260794	4029714
4029833	HCI	a common computational process in cueing and conjunction search tasks	2011	4.506271984109199	-8.45463437907306	4029860
4029843	Robotics	the best of both worlds: integrating textual and visual command interfaces for mars rover operations	2005	5.030612848188894	-9.163717209067839	4029870
4030137	Graphics	floral diagrams and inflorescences: interactive flower modeling using botanical structural constraints	2007	6.138229696577705	-8.64143528603139	4030164
4030211	HCI	laserpointer-interaction between art and science	2008	6.207713205228883	-8.358178093170475	4030238
4030229	Web+IR	demo: virtual director for live event broadcast	2012	6.244133149193057	-9.74699603004198	4030256
4031151	AI	structured descriptions of complex objects	1973	5.641455467985245	-8.218506584045613	4031178
4031427	AI	technical section: interactive example-based hatching	2013	5.384323489506398	-9.433995674702123	4031454
4031910	HCI	using commercial virtual reality games to prototype serious games and applications	2017	6.116575889089651	-9.70955274293268	4031937
4032207	Graphics	advances in geometry and reflectance acquisition (course notes)	2015	5.7375457411081205	-9.108392604640711	4032234
4032833	Graphics	the script processing technique in modeling/simulation and its role in the generation of animated computer graphics	1986	5.750366202222907	-9.115323814888487	4032860
4032868	EDA	3d interactive garment pattern-making technology	2018	5.370464149046927	-9.673240646564118	4032895
4032945	HCI	hyperdraw: a new computer aided drawing system based on prediction of drawing action	2007	5.894332678605244	-9.6692383912068	4032972
4033075	HCI	a combined junction-cue dictionary for labelling sketch drawings with artistic shadows and table-line cues	2015	6.050606257787522	-9.167793949223864	4033102
4033185	Vision	evolving maps for match balancing in first person shooters	2014	4.856532290410848	-8.096627101084946	4033212
4033882	Robotics	a neural system for faithful color reproduction in industrial printing processes	2018	6.2728610123724655	-8.866910030617898	4033909
4034319	Vision	searching the world’s herbaria: a system for visual identification of plant species	2008	6.22487986365725	-8.095927332326497	4034346
4034361	AI	wolves, football, and ambient computing: facilitating collaboration in problem solving systems through the study of human and animal groups	2004	5.096981676039562	-8.089259646095028	4034388
4034431	Graphics	cutaways and ghosting: satisfying visibility constraints in dynamic 3d illustrations	1992	6.116816884291482	-8.7776038406934	4034458
4035262	Vision	identification of geometrical shapes in paintings and its application to demonstrate the foundations of geometry in 1650 b.c	2005	5.84479842975294	-8.46749558921604	4035289
4035580	HCI	multiagent model of dynamic design: visualization as an emergent behavior of active design agents	1996	5.226594550420775	-8.309464757427374	4035607
4036308	AI	"""towards large-scale multi-agent based rodent simulation: the """"mice in a box"""" scenario"""	2011	4.4202591885733655	-7.896213927670296	4036335
4036734	EDA	from engineering drawings to 3d models: are we ready now?	1995	6.124425779290558	-8.592438912368266	4036761
4037167	NLP	a collaborative agent architecture with human-agent communication model	2012	4.813860363994469	-8.58834071497988	4037194
4038503	AI	affine geometry, visual sensation, and preference for symmetry of things in a thing	2016	5.4796812815486975	-8.329362495860043	4038530
4039664	AI	in search for the human factor in rule based game ai: the grintu evaluation and refinement approach	2009	4.5683269060839855	-8.111316165555102	4039691
4039731	HCI	lift-mouse: tangible device to feel 3-d surface of 2-d picture	2005	5.390495619843024	-9.763049109790225	4039758
4042230	Graphics	computer analysis of lighting in realist master art: current methods and future challenges	2009	6.1492081505505025	-8.107772996084009	4042257
4042428	DB	research on interaction control model of artificial fish in virtual environment	2007	4.401755717317278	-8.09634196954237	4042455
4042537	HCI	from 2d to 3d painting with mesh colors	2015	5.913239570876696	-8.79702835972339	4042564
4042703	HCI	urp: a luminous-tangible workbench for urban planning and design	1999	5.882667021321909	-9.185245994098999	4042730
4043511	Visualization	visualization of complex phenomena in string theory	1995	5.997936332424128	-8.739413111665284	4043538
4043686	AI	an agent-based annotation model for narrative media	2012	6.031924618553956	-8.49187317325526	4043713
4045109	Graphics	computational design of linkage-based characters	2014	5.672633487943988	-9.277978350107471	4045136
4046320	HCI	draco: bringing life to illustrations with kinetic textures	2014	5.674219693181818	-9.3780038308416	4046347
4048123	ML	starss: a spatio-temporal action rating system for soccer	2017	4.483057342711045	-8.358753589312824	4048150
4048724	Robotics	integration of design by features and feature recognition approaches through a unified model	1993	5.138432785984954	-8.016996431156805	4048751
4049385	Robotics	a cg generation method of wash drawing	2009	5.877023490939488	-9.791427429492602	4049412
4050130	Graphics	effective 3d modeling of heritage sites	2003	6.179869501313218	-8.152380139999122	4050157
4050323	Graphics	dragon scales: the evolution of scale tool for reign of fire	2002	5.7179144532755215	-9.266797886585245	4050350
4051113	AI	modeling agents with a theory of mind	2009	4.631171379122238	-8.24887524197533	4051140
4051118	Graphics	intuitive crowd behaviour in dense urban environments using local laws	2003	4.587802719766569	-9.058558878233056	4051145
4051778	HCI	using behavioral modeling technology to capture designer's intent	2005	5.905868145926719	-8.791912412740357	4051805
4053561	AI	programmable transitions for video stream editing	2009	6.200563410567899	-9.138645132326843	4053588
4054277	Graphics	portraits in 8 bits or less	2004	5.704707459510843	-9.054821791515566	4054304
4054618	Graphics	world of warcraft	2005	5.80799523499268	-9.340809777832092	4054645
4055058	Vision	free-hand stroke based nurbs surface for sketching and deforming 3d contents	2005	5.490062713358369	-9.598494834406102	4055085
4055368	Robotics	how to solve common human actions recognition use cases with gesture description language	2016	5.940654203378034	-9.472615384926288	4055395
4058015	HCI	a 3d desktop puzzle assembly system	2011	5.5910893675630895	-9.549076852857404	4058042
4060207	Graphics	sketch based 3d character deformation	2011	5.033688227062746	-9.779405234312184	4060234
4061888	Robotics	on seeing stuff: the perception of materials by humans and machines	2001	6.0460951499316025	-8.55448055165191	4061915
4064517	Visualization	a developer-friendly “open lidar visualizer and analyser” for point clouds with 3d stereoscopic view	2018	6.140792822352233	-8.718658984655594	4064544
4064584	NLP	a bio-inspired emotion engine in the living mona lisa	2015	4.841427995999398	-8.492370374998815	4064611
4064624	AI	effects of shared perception on the evolution of squad behaviors	2009	4.4725499833093485	-8.076258483141283	4064651
4067382	Networks	the electric sheep distributed screen-saver	2004	5.682716863733482	-8.745224737732668	4067409
4068796	HCI	supporting collaborative work in socio-physical environments: a normative approach	2012	4.9868678478039055	-8.746618338378113	4068823
4068833	Graphics	shapepalettes: interactive normal transfer via sketching	2007	5.532924006714011	-9.573700089437466	4068860
4069679	Visualization	virtual storytelling for training: an application to fire fighting in industrial environment	2001	4.814358768074971	-8.67801577473143	4069706
4069730	Graphics	anamorphic 3d geometry	2006	5.8543535919949035	-9.068227188499838	4069757
4070252	AI	a game ai production shell framework: generating ai opponents for geomorphic-isometric strategy games via modeling of expert player intuition	2007	4.882131321263127	-8.287413193659606	4070279
4070599	Graphics	computer graphics shaders using opengl 4.x	2010	5.964992820772267	-8.67063648325097	4070626
4070724	HCI	glengarry glen ross: using bdi for sales game dialogues	2012	5.10526258236376	-8.239542835791982	4070751
4072134	AI	task-oriented conversational behavior of agents for collaboration in human-agent teamwork	2014	4.778132028092263	-8.385404677997256	4072161
4074647	AI	socio-constructivist framegame design: theoretical and empirical consideration	2007	4.635277921818356	-8.41433485476815	4074674
4074890	HCI	building with the beeoids: guided automatic construction using pheromones	2009	5.088220666372356	-8.159558899944598	4074917
4077021	HCI	a novel interface paradigm for supporting product design	2004	6.063806949478566	-9.673933996735892	4077048
4078220	Visualization	application of the 3d multi user virtual environment of second life to emergency evacuation simulation	2010	4.955169959681187	-9.155547158127849	4078247
4078953	Graphics	concise texture editing	2004	6.260161280330963	-9.415439011028356	4078980
4080040	Graphics	behavior-graph for crowd simulation	2007	4.731135173151256	-9.151527353849156	4080067
4080287	AI	design of emergent and adaptive virtual players in a war rts game	2011	4.388355609709223	-8.173610240899668	4080314
4080293	Vision	communication in human-agent teams for tasks with joint action	2015	4.645305302542422	-8.373785800677885	4080320
4080503	AI	pairing character classes in a deathmatch shooter game via a deep-learning surrogate model	2018	4.882796589495648	-8.29076052955825	4080530
4080858	Graphics	quill: birds of a feather tool	2011	6.1223600567532825	-8.945908033248061	4080885
4081243	AI	orthogonally evolved ai to improve difficulty adjustment in video games	2016	4.3802170884806495	-8.187822170806385	4081270
4082692	Vision	uniform image and camera access	2009	5.452624135491114	-9.75476707275651	4082719
4082837	AI	the application of ai to automatically generated animation	2001	4.935170104882993	-9.204054909235674	4082864
4083125	Robotics	the image object content architecture	1990	5.401992161840342	-8.814685457400236	4083152
4083194	AI	participatory simulation environment gumonji/q: a network game empowered by agents	2009	4.851621176605469	-8.531140000896682	4083221
4083906	Robotics	creating dynamically changing world map for computer games with advanced image processing -- a use case	2016	5.325383921560946	-9.045879633440787	4083933
4084060	AI	creating densely populated virtual environments	2007	5.473463527670214	-8.877888538396117	4084087
4084493	PL	natural language communication with virtual actors	2002	4.66683816358178	-8.959820409579905	4084520
4085509	HCI	towards an extensible virtual geoint center	2013	6.109751566501705	-9.613577577461198	4085536
4085686	Visualization	simulation of underwater excavation using dredging procedures	2018	4.663862361767887	-9.174347065005351	4085713
4085688	AI	prisoners and chickens: gaze locations indicate bounded rationality	2012	4.401951530277171	-8.156264319212651	4085715
4086462	HCI	design and realization of stereoscopic 3d for disney classics	2011	5.897957676655032	-9.107048866947023	4086489
4086492	Visualization	bi-manual interactive tools for cultural heritage researchers	2008	5.276030139322524	-9.715883712773516	4086519
4086631	AI	towards behavioral consistency in animated agents	2000	4.920473050833984	-8.26017995269272	4086658
4088656	Graphics	combining computer graphics with chinese traditional painting	1987	5.984611351412207	-9.067517943565196	4088683
4088870	HCI	explicit design of transfer functions for volume-rendered images by combining histograms, thumbnails, and sketch-based interaction	2017	6.070309778447688	-9.491828053088597	4088897
4089185	Graphics	constraint-based motion adaptation	1998	5.519352248151685	-8.758890822398165	4089212
4089292	AI	proposal and development of artificial personality with requesting mechanism	2017	4.652353901151176	-8.291815744281884	4089319
4089415	Visualization	a high-level event system for augmented reality	2007	5.690363536726558	-9.152641235007	4089442
4089436	AI	believable agents and intelligent story adaptation for interactive storytelling	2006	5.191680084747482	-8.418012852886433	4089463
4089862	Graphics	raptor wrangling: real-time motion capture for jurassic world	2015	5.619955043694862	-9.734363809783984	4089889
4089963	Logic	anyone can make quality animated films!: the 8 basic steps to success	2005	6.1127179839480315	-8.400597928635706	4089990
4090782	Graphics	building a photo studio for measurement purposes	2000	5.63544201186204	-9.325839473083805	4090809
4090811	Vision	designing and simulating clothes	2001	4.9137103259226445	-9.759356973977342	4090838
4090919	AI	learning group behavior in games: using cultural algorithms: the land bridge game engine example	2011	4.827863267044785	-8.342391979388863	4090946
4091051	Vision	how many pixels does it take to make a good 4″×6″ print? pixel count wars revisited	2011	4.855415182086829	-9.270826103818106	4091078
4091216	Visualization	interactive context-driven visualization tools for augmented reality	2006	6.251041603366429	-9.525608801813766	4091243
4091383	Robotics	generating the animation of a 3d agent from explanation text	1998	5.966143234739412	-9.335615150903553	4091410
4091685	Graphics	digitalization of paper sketches integration of the non digital draft	2011	6.163268759551213	-8.621368307065193	4091712
4092483	Vision	document restoration using 3d shape: a general deskewing algorithm for arbitrarily warped documents	2001	5.9687383515231724	-8.15317341653314	4092510
4092487	Visualization	strategy to optimize the creation of arrangements in virtual electric power substations	2017	4.539275121873271	-9.5541466252611	4092514
4092495	Visualization	a tour in the archaeological site of choirokoitia using virtual reality: a learning performance and interest generation assessment	2017	6.199568796274193	-9.669782762990977	4092522
4093051	Robotics	action planning for virtual human performances	2005	5.789437929848188	-9.556481267319269	4093078
4095165	Mobile	demo abstract: the immersive reality of building data	2015	5.486584185196786	-9.347738210142507	4095192
4095232	HCI	interactive metamorphic visuals: exploring polyhedral relationships	2001	6.2815067291751445	-8.684585530121073	4095259
4096227	Robotics	a search-based approach for generating angry birds levels	2014	4.953396318587535	-8.26026151176407	4096254
4096591	Vision	a photogrammetric and computer vision-based approach for automated 3d architectural modeling and its typological analysis	2014	6.221374315906861	-7.916686371857297	4096618
4096661	AI	emotions in intelligent agents	2002	4.604170438856074	-8.41793172821467	4096688
4097814	Visualization	research on visualization techniques in large scale virtual battlefield	2016	5.922639143923295	-8.55937906824606	4097841
4097836	Graphics	interpreting a 3d object from a rough 2d line drawing	1990	6.042280106804695	-9.020046378379007	4097863
4098332	Visualization	applying computational aesthetics to a video game application using machine learning	2016	5.48063565383044	-9.662857989217386	4098359
4098781	Visualization	the visible human project: from body to bits	2016	5.673374466647567	-9.177025105814453	4098808
4099070	AI	a two-tiered, agent based approach for autonomous, evolutionary texture generation	2008	5.021662607155486	-8.441485824665538	4099097
4099171	Graphics	automatically mimicking unique hand-drawn pencil lines	2009	6.192419900133554	-9.256719497317956	4099198
4099768	Robotics	a goto-based concept for intuitive robot programming	2012	5.3254752367791465	-8.884811376336296	4099795
4100125	Robotics	an interactive agent-based framework for materialization-informed architectural design	2017	5.037378547757728	-8.710942374416343	4100152
4100530	HCI	virtualtable: a projection augmented reality game	2015	5.81640333060879	-9.2050876829614	4100557
4100564	HCI	deflection 1	2004	6.052343903900832	-8.704077094511613	4100591
4101976	HCI	football analysis using spatio-temporal tools	2012	4.907592427258813	-7.9290864120954785	4102003
4102805	Graphics	a two-view approach to creating computer animation	1995	6.076595202595103	-9.284759305823801	4102832
4103037	AI	level-of-detail for cognitive real-time characters	2005	4.545516823261367	-8.807802008556322	4103064
4103320	Robotics	the digital model of the s. zenone chapel inside santa prassede in rome: a case study for the morphological analysis	2017	6.226991644153303	-8.124589373053919	4103347
