id	area	title	year	x	y	ix
885729	SE	an extension of the program derivation format	1998	4.6156415752660935	6.553093511659881	885756
885856	PL	design and implementation of the interface to compiled languages in apl*plus ii	1990	5.9749672864961365	6.828204574789942	885883
885936	PL	an algorithmic search procedure for program generation	1967	5.314240937862464	6.459630935162657	885963
885954	DB	'self'-conscious objects in object-z	1997	4.594433811530041	7.340320674126596	885981
886600	PL	domain-specific languages and code synthesis using haskell	2014	6.0309357001329955	6.198418735197665	886627
887758	PL	verification of selection and heap sort using locales	2014	5.623333646279357	7.336236616349066	887785
888959	PL	on formal semantics and analysis of typed modeling languages: an analysis of ascend	1998	5.925425219907912	7.320776551055722	888986
888970	PL	on the return types of virtual functions	1999	5.3565249322523165	7.0638850527638795	888997
889068	Logic	mechanized verification of circuit descriptions using the larch prover	1992	4.666601793399282	5.652347943538812	889095
889283	NLP	usability and portability of a compiler writing system	1975	6.241480080938921	6.824981655670055	889310
889846	OS	what was, what is and what should have been. a critical evaluation of the chilton multi-access system	1972	6.053575523136481	6.280287216495295	889873
889852	OS	specification of an operating system kernel forest and vdm compared	1988	4.668150219109345	7.3517400335977054	889879
890038	AI	towards a strategy language for maude	2005	5.027586578803116	7.219132556233218	890065
890273	SE	cocoa and cocoalib: fast prototyping and flexible c++ library for computations in commutative algebra	2016	6.288469642888996	5.9028050862880335	890300
890443	PL	towards an object-oriented implementation of von mises’ motor calculus using modelica	2008	6.088621316083198	6.50386586302356	890470
891024	AI	how many trivial getter methods does java have?	2002	5.809656111896545	5.965812795957352	891051
891524	NLP	ppvt: a tool to visualize predictive parsing	2017	5.806124637104522	6.3135807876054635	891551
891860	SE	strange bedfellows: abstract data types and dbaseiii	1992	6.211815326764765	7.169779264689278	891887
892108	PL	develop a compiler in java for a compiler design course	2007	5.767786802891936	6.752668779710164	892135
892695	Robotics	controller agents for constraints solving: implementation and use of cacs prototype	2008	5.510961609531799	6.006624563876376	892722
893449	PL	manual and compiler for the terse and modular language dem	1996	5.80727210369128	6.982987172719303	893476
893495	NLP	structured fortran preprocessors generating optimized output	1988	4.968639223602968	7.399493994999696	893522
893867	Arch	a quantitative approach to the design of an optimized hardware interpreter for java byte-code	1999	5.929186801826111	5.9302152617823305	893894
895700	Arch	architecture and software implementation of a quantum computer model	2016	5.684561084440966	5.712403448385335	895727
895729	PL	on the role of representation in object oriented programming	1983	5.806607624832988	7.3523736372189425	895756
896844	PL	programming errors in traversal programs over structured data	2009	4.8675414164970086	7.3984981744311975	896871
897250	PL	implementations of the sharer2 time-sharing system	1968	5.2039481512554335	6.977082501643461	897277
897854	EDA	software implementation of petri nets and compilation of rule-based systems	1990	4.727768760253244	7.048890044212112	897881
898001	PL	a self interpreter for balinda lisp	1990	5.3819474112631465	7.058727460115487	898028
898174	EDA	scheduling speculative work in or-parallel prolog systems	1993	4.625009619325176	5.690665208786721	898201
898183	PL	control flow analysis for the applied pi-calculus	2004	5.121909852606773	5.665665185664044	898210
898377	PL	opus: a formal approach to object-orientation	1994	4.5065083125540815	7.239072940284492	898404
898660	PL	why do we know so little about programming languages, and what would have happened if we had known more?	2014	5.9837684435111225	7.211511879484672	898687
898789	SE	decompiling codasyl dml into relational queries	1982	5.591661561776254	6.524240326804168	898816
899037	PL	a formalism for translator interactions	1970	5.6694151118124525	6.410948961045004	899064
899705	PL	a redundancy check for algol programs	1962	5.3654694787454185	6.286398779579668	899732
900974	NLP	syntax directed translation with lr parsing	1992	4.500445122736912	6.57088231670869	901001
901040	PL	risa/asir - a computer algebra system	1992	5.598416240032587	6.720188026192461	901067
901292	PL	island grammar-based parsing using gll and tom	2012	4.907335496695237	7.025183240056458	901319
902931	Robotics	an automaton-based formalism for cooperative augmented reality systems	2009	4.565217643691199	6.308731396733223	902958
903851	PL	reasoning about object structures using ownership	2005	4.8952924736888965	7.4185367229320125	903878
904360	Logic	a testing mechanism for concurrent programs based on msc	2000	5.577683878133718	5.770542861540812	904387
904445	Logic	robin milner, a craftsman of tools for the mind	2010	5.409050024103261	5.9965239099005165	904472
905665	SE	system thinking for formal analysis of domain functioning in the computation independent model	2012	6.283149200477557	6.887581202542777	905692
906097	PL	dialogues: a basis for constructing programming environments	1985	5.290555700269555	7.041649525708077	906124
906110	Crypto	the expressive power of multi-parent creation in a monotonic access control model	1992	4.606326943921507	5.632898505657432	906137
907353	PL	uncertain t >: a first-order type for uncertain data	2014	4.498449555722641	7.307907699835327	907380
907576	PL	runtime-flexible multi-dimensional arrays and views for c++98 and c++0x	2010	5.371073432953415	6.7422480674535175	907603
907896	PL	operator precedence for data-dependent grammars	2016	4.555834993183526	7.396583220918058	907923
909270	PL	infinite pretty-printing in exene	2001	5.085172318282028	6.595064607873613	909297
910040	SE	state-based model slicing: a survey	2013	5.650801773734287	7.267107851302471	910067
910601	Logic	testing of automata: from experiments to representations by means of fragments	1998	4.7980235864089735	6.322664491959242	910628
910723	AI	systems-based knowledge representation: relations and methods	1992	5.832047539692618	7.267799744003114	910750
912008	Embedded	computing and signal processing: an experimental multidisciplinary course	1994	5.111200492982615	6.8846409317481365	912035
912534	PL	a short note on short differentiation programs in lisp, and a comment on lagarithmic differentiation	1998	4.801886965250673	6.519431859222822	912561
913722	SE	coordination-based distributed constraint solving in dice	2003	5.123675320186007	6.700159088516473	913749
914805	Logic	basic principles of a textbook on the compositional and noncompositional verification of concurrent programs	2000	5.094002083195665	6.1927019769679035	914832
915113	PL	a pure embedding of attribute grammars	2013	5.101010939870963	7.406675299132508	915140
915146	Logic	the virtuality of constraints and the constraints of virtuality	1996	5.95039685678673	6.120873564278143	915173
915368	PL	syntax and semantics of the weak consistency model specification language cat	2016	5.163965001805316	7.004372753173348	915395
915716	PL	a denotational definition of the semantics of drc, a domain relational calculus	1982	5.706738683981653	6.4950771768733135	915743
915834	EDA	operating system for the b 5000	1987	5.7461322760771285	6.744977077440282	915861
916402	PL	non-linear type extensions	1994	4.8651256282874416	6.052563279017675	916429
916589	PL	towards practical gradual typing	2015	6.018351086317343	6.967456905024113	916616
917244	SE	four models for the analysis of optimization of program control structures	1975	4.810090919159513	6.451444401145606	917271
918462	Logic	model checking combined z and statechart specifications	2003	5.96036918826232	6.086938851933497	918489
918787	NLP	modular hpsg [head-driven phrase structure grammar]	2001	4.482663655220814	6.4104092606927665	918814
919329	PL	type-safe modular parsing	2017	5.180663190857053	7.384783496759925	919356
919437	PL	the assignment statement in hardware description languages	1977	5.761991841619892	6.584151636900611	919464
919702	NLP	transformational decomposition: a simple description of an algorithm for transformational analysis of english sentences	1967	4.411059687589528	5.751698853921868	919729
920767	PL	a programming language for mechanical translation	1958	5.616104307120594	6.2602273305157885	920794
921063	Robotics	a comparison of mathematical programming modeling systems	1992	5.539563579682144	5.61270556903391	921090
921776	DB	complex: an object-oriented logic programming system	1992	5.647802344831991	6.5390176479517965	921803
921953	HPC	guest editor's introduction special issue on logic programming and the internet	2001	5.239274857739178	6.717757076989151	921980
922671	PL	apl2 - a very superior fortran	1987	5.65097880918435	6.203690158045753	922698
923238	PL	a formal system for parallel programs in discrete time and space	1980	4.758872067359026	5.803758330589853	923265
924516	PL	reference type logic variables in constraint-logic object-oriented programming	2018	5.318803970664881	7.425804070171628	924543
924778	SE	recovering grammar relationships for the java language specification	2009	5.121633121083709	7.263670065548062	924805
924806	PL	detecting prolog programming techniques using abstract interpretation	1992	4.89817021603188	7.029235341002555	924833
925080	PL	genetic programming ii: automatic discovery of reusable programs.	1994	5.601367821010894	6.420603208776541	925107
927700	SE	program derivation using data types: a case study	1979	4.743168897205441	6.679874459984673	927727
927931	PL	the use of a meta-assembler to design an m code interpreter on amd2900 chips	1981	5.854561121595983	6.87725994431806	927958
928074	Logic	representation for program control structures by rewriting of flow graphs	1995	4.811441740160156	6.633647656404968	928101
928617	PL	expressive genetic programming: concepts and applications	2016	5.160071608939812	6.451000648488389	928644
928974	PL	a formal approach to domain-oriented software design environments	1994	6.179242562349557	7.08933122085019	929001
929116	PL	data typing in apl	1989	5.138904662995103	6.77339617879541	929143
929475	PL	implementing separate compilations in pascal	1987	5.679033824598784	6.97670121849833	929502
930154	Logic	multimodal logics for reasoning about interaction	2008	4.811859950053214	5.77292758823391	930181
930652	PL	building abstract iterators using continuations	1991	4.732058921150942	5.7841302492291655	930679
931187	SE	migration of common lisp programs to the java platform -the linj approach	2007	5.429063262838074	7.4121280018988775	931214
931266	Logic	verifying the cics file control api with z/eves: an experiment in the verified software repository	2009	5.397181190722702	6.893809601627108	931293
931307	PL	a simple rewriting semantics for realistic imperative programs and its application to program analysis	1992	4.752560877266898	6.688402361114931	931334
931796	HPC	a formal development of event graphs as an aid to structured and efficient simulation programs	1989	4.631409106201395	6.229322748467576	931823
932218	Networks	examining the generality of a behavioural animation framework	2001	4.941767106720962	6.123475597139162	932245
932714	PL	reflection-based implementation of java extensions: the double-dispatch use-case	2005	5.828523603660067	6.855833843728522	932741
933487	PL	uniform boilerplate and list processing	2007	4.682513947858734	7.153539859950075	933514
933495	Theory	on maintaining dynamic information in a concurrent environment (preliminary version)	1984	4.4374445703419605	6.295792894058922	933522
934037	HCI	language design and analyzability: a retrospective	2012	5.827886877197548	7.3644056200805315	934064
934672	PL	panel - is multiple inheritance essential to oop?	1993	5.832769094811924	6.699220055752878	934699
934837	PL	semantics-based compiling: a case study in type-directed partial evaluation	1996	4.496865227230741	7.128761579191163	934864
935468	AI	transactions on computational science xxiii	2014	5.40556519426021	5.979739715003543	935495
935759	PL	programming uncertain <t>jhings	2016	5.0314366797311365	7.28130187573872	935786
936095	PL	experience report: type-checking polymorphic units for astrophysics research in haskell	2014	5.128820475492407	7.003632922098305	936122
936296	Logic	terse: a visual environment for supporting analysis, verification and transformation of term rewriting systems	1996	5.359302387989393	6.664889454911318	936323
936312	SE	implementing abstract data types in turbo pascal	1990	5.750061556858936	6.935980405845385	936339
936797	PL	packrat parsers can handle practical grammars in mostly constant space	2010	4.509058757508552	6.65034393780486	936824
936828	PL	a theorem prover for scientific and educational purposes	2017	5.002076611947664	6.551780193651161	936855
937082	PL	analyzing module diversity	2005	5.671604492036972	7.204844007830089	937109
937392	Graphics	scanning text with a 1401	1964	5.138651235355924	6.143780895025638	937419
937618	PL	semantic correctness in the specification, translation, and parallel implementation of sql queries	1994	4.907988238438621	5.607685313978929	937645
937901	Logic	a logic teaching tool based on tableaux for verification and debugging of algorithms	2011	5.071428235958384	6.691588364400292	937928
938162	HPC	abstractions considered helpful: a tools architecture for quantum annealers	2016	5.881852032030131	6.6132111490264585	938189
939666	ECom	visitor-based attribute grammars with side effect	2011	6.0815095275264754	7.212537524638409	939693
939701	HCI	assisted proof document authoring	2005	6.180903941722198	6.190391182452017	939728
939719	Logic	computer science reconsidered: the invocation model of process expression	2007	5.207586572631894	5.914148688327322	939746
940842	PL	an expert system for drafting legal documents	1984	5.532349298794482	6.317789380158741	940869
941569	PL	handling floating-point exceptions in numeric programs	1996	5.018879820679196	6.910715008786172	941596
941767	PL	visual language implementation through standard compiler-compiler techniques	2007	5.415332473645423	6.474541925595507	941794
941924	PL	design and implementation of data abstraction definition facility	1978	5.935270986844988	6.656785566563028	941951
942098	Logic	verification, model checking and abstract interpretation (workshop overview)	1997	5.126522291453777	6.1145120440129235	942125
942237	Security	the expressive power of multi-parent creation in monotonic access control models	1996	4.621384780285277	5.619435679448726	942264
942485	Robotics	how behavior trees modularize robustness and safety in hybrid systems	2014	6.086761050550043	7.363134725773968	942512
942942	PL	procedures as persistent data objects	1985	6.0809143829272045	7.144674712088071	942969
943936	DB	a reconfigurable software style expert system (abstract only)	1987	5.60558080335759	6.51867717719185	943963
943986	HCI	generating parallel applications of spatial interaction models	1998	6.017682317673184	5.788830765835093	944013
944309	PL	compiling: a high-level introduction using scheme	1997	5.637782394453532	7.2720297575772905	944336
944384	Logic	using automated induxtion-based theorem provers for reasoning about concurrent systems	2002	4.5206679482631555	5.543009293092998	944411
946040	PL	extension of existing compilers by sophisticated use of macros	1964	5.217519691038516	5.7062362019953845	946067
946180	PL	the narrowing-driven approach to functional logic program specialization	2001	4.43359286840937	6.808183983040809	946207
947439	DB	control network programming	2007	5.185034899935456	6.443459154419213	947466
947872	Crypto	analysis of secure information flow by model-checking	2001	5.1270368068673875	5.835522320246994	947899
948577	PL	jml support for primitive arbitrary precision numeric types: definition and semantics	2004	4.513952126764936	7.159200728974726	948604
948714	AI	the precise handling of qualitative relationships	1975	4.750350469511837	5.676426965123112	948741
948774	HPC	building library components that can use any mpi implementation	2002	5.481146184249737	7.130723282088308	948801
949028	PL	an incremental, exploratory and transformational environment for the lazy functional programming	1993	5.444507492502738	7.4246673368887475	949055
950102	Arch	b73-4 high level languages - international computer state of the art report	1973	6.052683369394503	5.789398273436325	950129
953590	PL	process inheritance	2002	6.0245379417145575	6.720042388246332	953617
953756	Robotics	depict: a high-level formal language for modeling constraint satisfaction problems	2006	5.622549098820536	6.1129214204185125	953783
954693	PL	proofs-as-programs as a framework for the design of an analogy-based ml editor	2002	5.254079089509896	7.066706001054431	954720
955332	Logic	a programming language oriented approach to computability	2014	5.419534748317197	6.19556777483392	955359
955496	AI	towards a default reading for constraint diagrams	2004	5.254603729602988	5.884425614670688	955523
955554	Logic	using interval logics for temporal analysis of security protocols	2003	5.745844861409284	6.680790882458178	955581
955903	PL	tarilan: an embedded functional data processing language	1998	5.368000795662138	6.061681022543689	955930
956083	PL	migratory typing: ten years later	2017	6.04463136670991	6.974026072229193	956110
956163	PL	on the automatic simplification of source-language programs	1967	4.981236576848055	6.89762693481583	956190
956305	PL	the specification language t	2005	5.693001756625952	6.447893353343562	956332
956888	ML	qualifying types with bracket methods in timor	2004	5.22677119448366	6.7614696229489955	956915
957932	Theory	generic parameters in occam	1989	6.094553878640635	6.1400270912398485	957959
958550	SE	learnsat: a sat solver for education	2018	5.803071998720112	6.056271825696443	958577
959851	PL	communicating sequential processes	1978	4.956236328896223	7.348067906268552	959878
960016	PL	parsing with first-class derivatives	2016	4.456980941675308	7.162258678028084	960043
960114	AI	a language-only course in lisp with pc scheme	1989	6.114412984179172	5.896704488101418	960141
960115	Embedded	adaptive automata - a revisited proposal	2002	4.670275855423063	5.985911006790329	960142
960210	Embedded	data directed control and operating systems	1972	6.2718233987208345	7.078004455845699	960237
960469	Logic	an experiment in program composition and proof	2002	6.274758948053403	7.311058146204487	960496
960893	DB	relational-product architectures for information processing	1985	4.689220826378946	5.595687288277847	960920
961065	PL	constraint hierarchies and logic programming	1989	4.764068787585243	6.3703623666344935	961092
961073	Robotics	motion generation in the mrroc++ robot programming framework	2010	6.137663385208825	6.887687749370265	961100
961804	PL	a language for automated programming of mathematical applications	1992	5.981021455137428	6.2838660918307045	961831
961971	Arch	a sap-like assembly program for the ibm 650	1960	4.7236344863325215	6.365554121756783	961998
962309	Embedded	fun with firewire: a comparative study of formal verification methods applied to the ieee 1394 root contention protocol	2003	5.900083236628197	6.0816658979673806	962336
962398	SE	generation of interactive parsers with error handling	1992	5.884035564753202	6.38729346851417	962425
963137	HCI	adaptive forms: an interaction technique for entering structured data	1998	6.16332259717904	6.260074142378892	963164
963247	PL	quick-sort: a pet peeve	2018	4.761679659755148	5.7272103006485375	963274
963650	PL	standardized extensions to modula-2	1997	6.245161411052218	6.859297910886607	963677
963677	PL	towards a module system for k	2008	5.915034038309733	7.434326446787464	963704
963731	PL	an algol-based implementation of snobol4 patterns	1977	5.3872095224366685	6.352353572034825	963758
964517	AI	developing a team of gold miners using jason	2007	6.3037220643966245	6.299674754077264	964544
964958	EDA	applying cooperating distributed graph grammars in computer aided design	2005	6.173846753253678	5.931817146546043	964985
964961	SE	the sdmlib solution to the ttc 2017 families 2 persons case	2017	5.465258489861067	6.3413363582557905	964988
965060	PL	on the type extensions of oberon-2	1993	5.863760517840624	6.318432741157392	965087
965165	PL	the prince project and its applications	1992	4.547394839777993	7.210082635581656	965192
965245	Arch	a case study in interlanguage communication: fast lisp polynomial operations written in 'c'	1981	5.248549059095069	6.2964228760127625	965272
965272	PL	quantum programming languages: a tentative study	2008	4.56761911377817	6.28431010237674	965299
965776	PL	ortocartan: a program for algebraic calculations in general relativity	1983	5.190006438246123	6.017065240853895	965803
966368	PL	basic object oriented genetic programming	2011	4.952533143764025	6.2021475575976535	966395
966993	PL	macro processing in object-oriented languages	1998	5.33244725099952	7.443643941965351	967020
968558	DB	building libraries in prolog	1983	5.724064131200013	5.855159051270455	968585
969442	PL	lucinda - an overview	1991	5.382219063763745	5.7888616264099895	969469
969863	PL	towards a formal specification of an object-oriented architecture for parallel computing.	1997	5.8544463820208	5.678190179407997	969890
970090	AI	visual programming with recursion patterns in interaction nets	2007	5.013084408450489	7.010859450904689	970117
970470	NLP	a chart generator for shake and bake machine translation	1996	4.538419679133708	6.334943791649263	970497
970735	PL	abstract data types in assembly language programming	1984	5.6041913905990945	6.469851129955987	970762
971065	SE	symbolic model checking of declarative relational models	2006	4.914850534619312	7.313772287158711	971092
971136	PL	abc with a unix flavor	2013	5.943726552681262	6.55439362820569	971163
971463	PL	unified media programming: an algebraic approach	2017	5.937376361187552	6.2883669591433895	971490
971760	Embedded	device management in turing plus	1988	5.937634396559362	6.8696128162183525	971787
972883	ML	the cobol librarian: a key to object program efficiency	1962	5.717199289007922	6.132839675528033	972910
973122	AI	synthesis of unix programs using derivational analogy	1993	5.312593276934137	6.681565513041125	973149
973567	Robotics	stream fusion using reactive programming, linq and magic updates	2013	4.630015457113291	6.178490264852807	973594
973657	HCI	extracting, organising, designing and reusing prolog programming techniques	1995	5.960835835711941	5.545296601577876	973684
974201	PL	interactive programs in a functional language: a functional implementation of an editor	1987	5.146750986527924	6.648527881367464	974228
974285	Logic	concurrency: theory and practice	1996	4.907304846096354	7.151796016508762	974312
975064	PL	design and static semantics of algorithm language l	1997	5.976998641590455	6.309311996176456	975091
975501	PL	the acme compiler	1968	5.843734629770049	6.495339293082175	975528
976268	PL	the structure of the essential haskell compiler, or coping with compiler complexity	2007	5.33922616698583	7.252193112107983	976295
976318	SE	testing completeness of code selector specifications	1992	4.815816386960373	6.893713000581688	976345
976713	Embedded	a formal framework for modelling component extension and layers in distributed embedded systems	2006	5.991697795478299	5.584056096822232	976740
976744	EDA	a synthesis technique for networks consisting of logical functions feeding a linear summation element	1965	5.914948838814827	6.524348854373192	976771
977416	PL	a semantic basis for proof queries and transformations	2013	4.417640586307696	6.091799615532906	977443
977688	PL	a modest proposal: c++ resyntaxed	1996	4.925233052108571	6.5387951223225524	977715
977781	SE	sumcracker: a package for manipulating symbolic sums and related objects	2006	5.0158870925074295	5.7793210680224565	977808
978175	EDA	a functional design framework for genetic algorithms	1999	4.942630559891351	6.207226421604957	978202
978236	PL	conversion to fortran 90: a case study	1994	5.697710510324634	6.649374134290952	978263
978630	PL	some rules for the automatic synthesis of programs	1975	5.9209975227951706	6.393222926619705	978657
978640	Arch	a partial evaluator of lisp programs written in prolog	1982	5.0358734489136445	6.050494885291772	978667
978962	PL	a toolkit for constraint-based inference engines	2000	6.011179267509119	6.4703618416755155	978989
979425	SE	using classes as specifications for automatic construction of programs in the nut system	1994	5.787887478226332	7.417318275392972	979452
979837	PL	jspace: implementation of a linda system in java	1998	5.865881874456982	7.2573492861828095	979864
980257	DB	on non-numeric architecture	1975	5.155641181515569	6.1130239419629095	980284
980569	NLP	a searching method based on problem description and algorithmic features	2005	5.767293079411718	6.800856299754256	980596
980946	SE	automatic skill matching for production machines	2018	5.6379691639690686	7.102270787651067	980973
981287	PL	reifying constraint satisfaction in smalltalk	1997	5.190508683883007	6.848066709296262	981314
981555	PL	bad: a basic language compiler for the tms 320c31 dsp	2000	5.300415060964118	7.1635063914562105	981582
981670	PL	programming languages: gpl, a truly general purpose language	1968	4.842205226067792	6.90010281972796	981697
981758	AI	a new approach to model-based diagnosis using probabilistic logic.	2008	5.8751467060159	6.40312708404353	981785
982030	Logic	condition/event systems: a powerful paradigm for timed and untimed discrete models of technical systems	1995	5.300573110653648	6.119339053213374	982057
982513	PL	efficient manipulation of binary data using pattern matching	2006	4.405698816132693	6.854296164771228	982540
982593	Logic	10252 abstracts collection - game semantics and program verification	2010	4.385835033676665	5.6471138615955105	982620
982847	ECom	extending pl/i for structured programming	1976	5.222795595139334	5.8528674918037	982874
982923	Logic	implementing a notion of modules in the logic programming language lambda-prolog	1992	4.884230312010901	7.322861247479938	982950
982939	PL	the description of programming languages and the verification of their compilers with the help of algorithmic specifications of abstract data types	1982	5.980469910068562	6.282756009595898	982966
983375	SE	virtual operations on virtual networks: the priority union	2003	4.5334800135270426	5.6618055778935945	983402
983499	PL	building embedded languages and expert system shells in prolog	1990	4.4278690572709225	5.9234819980390885	983526
983859	SE	a small openmath type system	2000	5.716621033334485	6.461556952617625	983886
984248	PL	revised report on the algorithm language algol 60	1963	4.60827849025724	6.390040946516304	984275
984407	Embedded	application of the darts method for the timed automata to the design of real-time systems	1994	5.001392010211338	5.687917615109546	984434
984675	EDA	on a reachability set of automation 3-counter machines	2010	4.427432750218379	5.55971254507567	984702
985424	Logic	from ambiguous regular expressions to deterministic parsing automata	2015	5.024394146244866	6.93952915508417	985451
986156	DB	a subgraph operator for graph transformation languages	2007	5.0905713762627265	5.955028644523258	986183
986538	PL	parameterized programming	1984	5.267111055718315	7.2366935314537475	986565
986718	Logic	on the need for a popular formal semantics	1996	6.161512668563637	6.6943890143982765	986745
987554	DB	the object-ownership model: a case study for inheritance and operator overloading	1997	6.269711769034768	6.449414474502041	987581
987635	PL	programmable semantic fragments: the design and implementation of typy	2016	4.912383234901466	7.349923962921611	987662
989186	SE	pushout: a mathematical model of architectural merger	2006	4.618373150612023	5.715272023457849	989213
989323	PL	using visual programming to extend the power of spreadsheet	1994	5.165797536982866	6.269362204651491	989350
990719	PL	a simple framework to calculate the reaching definition of array references and its use in subscript array analysis	2000	4.497236866758512	6.589358866319176	990746
990762	PL	reasoning with the hermit: tool support for equational reasoning on ghc core programs	2015	5.453484526080251	7.435473885759546	990789
991558	SE	ranking structure in communication fabrics	2013	5.3890559234455075	6.0840481851399115	991585
992048	AI	progress in artificial intelligence	1999	4.3972725734263935	6.011610220219137	992075
992083	PL	a portable pseudo-code for pascal-like languages	1984	5.467812494174904	6.840209690763362	992110
992153	PL	a reflective functional language for hardware design and theorem proving	2006	4.471238055731793	7.199044899026763	992180
992513	PL	environment analysis via δcfa	2006	6.051264344193864	7.131549125707116	992540
992684	PL	declarative multi-paradigm programming	2014	5.067401980819231	6.6038798911143735	992711
993044	PL	on the representation of data types	1981	5.844558894088677	7.077663872153658	993071
993297	AI	unparsing rdf/xml	2002	4.583512425446066	6.41369268206169	993324
993431	NLP	a formal notation for specifying static semantic rules	1980	4.661552127057352	6.739338767229015	993458
993918	Robotics	building the access pointers to a computation environment	1997	5.0016651941538965	5.555750904080128	993945
993933	PL	partial implementations of abstract data types: a dissenting view on errors.	1984	4.593108147385946	6.544776099183924	993960
994600	EDA	a minimalist approach to vhdl logic modeling	1990	5.771513670041168	7.234225113523048	994627
994650	AI	a heuristic program that solves symbolic integration problems in freshman calculus	1963	5.9208545067790315	5.803699691483566	994677
994903	HPC	a framework for implementation-independent simulation models	2006	6.246431219894142	7.154260199956221	994930
996237	EDA	artus - an open framework for logic synthesis	1994	6.28959630870796	6.347147120994554	996264
996540	PL	semantics-based partial evaluation of prolog programs	1991	4.885710787758841	5.6154761608868595	996567
996676	HPC	paragraph: graph editor support for parallel programming environments	1990	6.013690988400519	6.687447036584513	996703
997675	HPC	eva: an explicit vector language	1990	5.818699608423565	6.51630061241883	997702
997725	SE	stress testing of compilers for modula-2	1992	5.3304798348384095	7.222794859536727	997752
997921	AI	on virtual machine architectures for evolutionary music composition	2017	5.770367367999595	6.035814620794497	997948
998011	PL	formal semantics and soundness of a translation from event-b actions to sql statements	2016	5.24581840544909	7.279116736853634	998038
998069	PL	premise selection and external provers for hol4	2015	4.424897863357988	6.12650969164405	998096
998909	PL	slicing the scam mug: a case study in semantic slicing	2003	4.642236572710473	6.734471529365706	998936
999161	AI	world of computing	2018	5.164059056703565	7.386137118225143	999188
999215	Robotics	robot control techniques, part two: forth as a robotics languags	1997	6.063023629860486	6.284733252748898	999242
999355	ML	the use of process clustering in distributed-system event displays	1993	5.967219677878287	6.664278440140835	999382
999447	AI	standarized program design	1971	4.776945454541765	6.0488569920720545	999474
1000508	SE	enhanced arithmetic for fortran	1982	5.0777217229086125	6.622396428479728	1000535
1001265	SE	initial report on a lisp programmer's apprentice	1978	5.405040385591345	6.6297492023064	1001292
1001408	DB	olaf: the goad active database event/rule tracer	1996	5.491098387816009	7.316346517684043	1001435
1001639	PL	an easy implementation of pil (prolog in lisp)	1983	4.693131201790823	6.266772354802747	1001666
1002140	PL	mutually recursive partial functions	2014	4.402706716317148	6.9377197135911794	1002167
1002296	PL	toward a new constraint imperative programming language for interactive graphics	2016	5.576397594476261	6.559500413915088	1002323
1003016	Logic	tutorial: automata learning in practice	2014	4.410149244079859	6.665299123848113	1003043
1003209	SE	algebraic specification of macintosh's quickdraw using obj2	1988	6.2662164854795765	7.135564804670988	1003236
1003331	PL	an algebraic semantics of subobjects	1995	4.5446049843438985	6.492194200873704	1003358
1005620	SE	controlled dataflow visual programming languages	2011	5.798968801043711	7.35116206583784	1005647
1006177	Logic	stochastic petri net-based modeling and formal analysis of fault tolerant contract net protocol	2015	5.601140181399909	5.6933759522732	1006204
1006820	NLP	a metatool for implementing task-oriented formalisms	1989	4.41361392638222	5.8150379067179765	1006847
1007056	Arch	m3l: a list-directed architecture	1980	5.148707139449903	7.026792668347106	1007083
1008182	SE	the design and use of a prolog trace generator for csp	1987	4.671620588694534	6.9639729951369205	1008209
1008360	PL	a system for assisting program transformation	1982	5.355651293563169	6.7343790147116245	1008387
1008485	PL	b72-4 system/360 job control language	1972	5.7826596333044185	6.516411856992371	1008512
1009431	AI	the design of maple: a compact, portable and powerful computer algebra system	1983	5.879763429949117	6.199566556238209	1009458
1009615	PL	programming with abstract data types, some examples	1978	4.6756047985017775	6.755630580804273	1009642
1009744	Arch	applications, implementation and performance evaluation of bit stream programming in erlang	2007	4.643021422539767	6.98103728360692	1009771
1010732	Logic	verification of the european rail traffic management system in real-time maude	2018	6.23630439617962	5.922043220674137	1010759
1011497	SE	timing neural networks in c and ada	2007	5.077084559647672	7.337805965447134	1011524
1011667	PL	decision table programming and reliability	1976	5.548981557112769	5.923710404788286	1011694
1011777	PL	regular expression patterns	2004	5.37604532378755	5.890186892249958	1011804
1011824	PL	romeo: a system for more flexible binding-safe programming	2016	4.585000433820167	7.239251181133215	1011851
1012033	Theory	hybrid and custom data structures: evolution of the data structures course	2009	5.797402388236438	6.483261843344907	1012060
1012317	HCI	uml activities at runtime - experiences of using interpreters and running generated code	2010	6.079785995329245	5.589687729897769	1012344
1012393	SE	foundations of the b method	2003	5.275293285172297	7.4393234126584895	1012420
1012886	PL	conditonal logic programming	1994	5.222108612368193	6.818882816567433	1012913
1013063	PL	efficient interpretation of prolog programs	1987	4.6123508099310895	6.382907893975239	1013090
1013194	PL	programming language features for refinement	2015	4.445958111461971	7.182395891283635	1013221
1014077	SE	diagrammatic reasoning in computer programming	2011	4.802557597263968	6.681718226644089	1014104
1014307	PL	the expression problem, gracefully	2015	4.583645993278535	5.87041623135067	1014334
1014386	PL	a simple and efficient step towards type-correct xslt transformations	2015	4.4901901622498706	7.115839545577643	1014413
1014456	Logic	concurrent scheme reference	1992	5.5520921700514725	6.744720675951129	1014483
1015031	PL	integrating constraints with an object-oriented language	1992	4.406315153897247	7.278047124601498	1015058
1016492	AI	semantics, analysis and security of backtracking regular expression matchers	2015	4.644216209164932	6.882253200650508	1016519
1017562	Robotics	integrating continuous-time and discrete-event concepts in modelling and simulation of manufacturing machines	1997	6.056313170180119	5.584162100776439	1017589
1017723	PL	a constraint language for static semantic analysis based on scope graphs	2016	5.056057862739686	7.112886387559618	1017750
1018500	AI	the layered architecture of a system for reasoning about programs	1985	5.5434100546144185	6.144300562488158	1018527
1019782	PL	object-oriented distributed programming with the language box.	1994	5.9397662537204665	7.205474280968398	1019809
1020338	Embedded	the formal semantics of deterministic dataflow programs	1984	5.4138550785238735	5.7264498413121965	1020365
1020685	HCI	a novel approach to symbolic algebra	2004	5.7250429961072635	6.405213217229501	1020712
1020688	PL	handling elan rewrite programs via an exchange format	1998	6.126346805062768	6.989379103502476	1020715
1020865	PL	the linking segment subprogram language and linking loader	1963	5.677067785013697	5.6831168128536245	1020892
1021286	Logic	clay flower creation based on homotopy type theory	2014	5.6700735994174885	5.6293517792645655	1021313
1021744	AI	metaclasses are first class: the objvlisp model	1987	4.9840870171793785	7.256775634478452	1021771
1022448	SE	reimplementation and reinterpretation of the copycat project	2018	5.576703488753345	5.901387779405737	1022475
1022510	PL	first-class containers in coq	2011	4.562837610648731	7.4029627201577135	1022537
1022682	PL	an overview of the saturn project	2007	5.7113021899183405	7.26219834338185	1022709
1022889	DB	debugging of wrong and missing answers for datalog programs with constraint handling rules	2015	5.2177615079772615	7.427597442267513	1022916
1023563	PL	profile-guided automatic inline expansion for c programs	1992	5.368446934228535	6.185882521872046	1023590
1023633	Embedded	design and implementation of context calculus in the gipsy environment	2008	5.16511819516779	7.378182274394419	1023660
1023704	AI	what's hot in the answer set programming competition	2016	4.402505984106616	5.547932785891014	1023731
1024092	PL	efficiently executable temporal logic programs	1993	5.117126791627414	5.9100720599828405	1024119
1024909	PL	integrating answer set programming with object-oriented languages	2017	6.004010918726432	6.6207818774615586	1024936
1025024	NLP	independently extensibile contexts	2010	5.786199817356592	6.042854940273707	1025051
1025063	EDA	construction and deconstruction of hierarchical event streams with multiple hierarchical layers	2008	5.847724868570743	5.724775809866449	1025090
1026265	PL	encapsulators: a new software paradigm in smalltalk-80	1986	5.1408859112180885	7.295052341395067	1026292
1026902	Logic	proof pattern search in coq/ssreflect	2014	4.7906615517168305	6.052191788241572	1026929
1026916	Visualization	an analysis of interactive learning environments for arithmetic and algebra through an integrative perspective	2009	5.6621687276353265	5.602635185035888	1026943
1027289	PL	rigal - a programming language for compiler writing	1991	5.197619666461748	7.0186676685776055	1027316
1027373	ECom	parsing k definitions	2014	5.041711220728152	6.235338904270929	1027400
1027546	DB	high-level programming features for improving the efficiency of a relational database system	1981	5.391612076948688	6.6532733188490605	1027573
1027668	ML	introducing ahpl	1974	5.832406248327818	6.580470867340205	1027695
1027753	PL	the comfy 6502 compiler	1997	5.5452440263292635	6.590223637721097	1027780
1028031	NLP	lr parsing of cfgs with restrictions	1990	4.3849885408105616	6.165728379750756	1028058
1028771	PL	letters to the editor: correction's to stone's compiler procedures	1968	4.9277541623420715	6.195364259352761	1028798
1028973	Visualization	arc diagrams: visualizing structure in strings	2002	5.068635936624093	6.042592812658667	1029000
1029220	PL	type-safe linkage for c++	1988	5.660368428551664	6.918970400636468	1029247
1029496	PL	realization of a translator for janus	1982	5.695105788404157	6.451125453870981	1029523
1030769	AI	using machine learning to make constraint solver implementation decisions	2010	4.720071106775644	6.3069582969912	1030796
1031095	PL	from act-one to miranda, a translation experiment	1998	5.0784291869318805	7.303541683196938	1031122
1031256	PL	the c programming language	1978	6.0716076260958936	6.2282837474445705	1031283
1032673	ML	conedy: a scientific tool to investigate complex network dynamics	2012	6.30294485047405	6.001387754567988	1032700
1032790	PL	the architecture of the utrecht haskell compiler	2009	5.055886329755968	7.422966244575488	1032817
1032857	AI	bridging the gap between high-level reasoning and low-level control	2009	5.831466575188828	6.523938779222032	1032884
1032958	EDA	modelling of object based systems with hidden sorted ecatnets	1995	5.690788804712298	6.667399333241375	1032985
1033031	HPC	chitra: visual analysis of parallel and distributed programs in the time, event, and frequency domains	1992	6.178122859358455	6.6810263956547535	1033058
1033141	PL	a transformational approach for developing parallel programs	1981	4.689485043874732	6.818124697641799	1033168
1033397	Logic	a formal operational semantics for prolog iii: using dynamic algebras	1990	4.468616553455059	5.841941318225332	1033424
1033414	HCI	llparse and lrparse: visual and interactive tools for parsing	1994	5.816098100252947	6.145637954545005	1033441
1033678	AI	2lp: linear programming and logic programming.	1993	4.407973101982625	6.200364579449786	1033705
1035104	Vision	high-level performance modelling and evaluation by stochastic process algebras	1999	5.641515403653438	5.794868815140148	1035131
1035245	SE	x-machines as a basis for dynamic system specification	1988	5.7981411921566774	7.267696630480581	1035272
1035364	PL	polytypic compact printing and parsing	1999	4.975841346331159	6.364441906988577	1035391
1036738	PL	editorial: aliasing in object-oriented systems	2001	4.609801133383677	7.189786715553233	1036765
1036757	PL	object-oriented programming with gradual abstraction	2012	4.762134035691715	7.172890416599418	1036784
1037058	PL	specification languages versus programming languages (panel).	1986	6.105627360999218	5.708978102341896	1037085
1037200	PL	putting instruction sequences into effect	2011	4.543978207825414	6.552142218657887	1037227
1037296	PL	is there a way of combining array-processing and object-oriented programming?	2000	5.170696925876261	6.506797149029916	1037323
1037469	DB	a model for automating file and program design in business application systems	1979	5.581167301109208	5.904376866060972	1037496
1037589	AI	manipulating descriptions of programs for database access	1983	4.905139260395666	5.8676746256904995	1037616
1037655	AI	synthesis of hybrid languages	1987	5.883000411292769	6.044397332679041	1037682
1038328	PL	towards the ideal programming language	1977	4.414963621217637	6.819447589705902	1038355
1038900	EDA	using the language lustre for sequential circuit verification	1992	5.388820742808024	6.149689925381657	1038927
1039009	PL	a comparison of storage optimizations in automatically-generated attribute evaluators	1986	5.854195224489378	6.669531942381897	1039036
1039310	SE	adapt: automated debugging in an adaptive prolog tutor	1992	5.379474324223403	6.783024485233701	1039337
1039652	SE	on program control structure	1973	4.594158738797338	6.647433171142607	1039679
1040512	PL	different approaches for development tools for natural computers - grammar driven vs. model driven approaches	2013	5.486400089533044	6.7549182817613165	1040539
1040657	AI	a proof-centric approach to mathematical assistants	2006	4.566104915820771	6.421646428755451	1040684
1041286	Logic	a higher order reconstruction of stepwise enhancement	1997	4.490215091048111	5.9230427180897935	1041313
1041644	PL	why it's nice to be quoted: quasiquoting for prolog	2013	4.63069394015514	6.679859005738366	1041671
1042023	EDA	a new formal verification approach for hardware-dependent embedded system software	2013	6.095295158048833	5.582298511089946	1042050
1042366	Logic	controlled natural language	2012	5.775938316418251	6.41354929940521	1042393
1042526	DB	a fuzzy petri net model for intelligent databases	2007	5.114554178397679	5.6199920790343025	1042553
1042721	PL	compilation certifiée de scade/lustre. (certified compilation of scade/lustre)	2013	5.336078441617327	5.658314975099728	1042748
1043106	PL	augmentation of object-oriented programming by concepts of abstract data type theory: the modpascal experience	1986	4.544641440343874	7.20320112203869	1043133
1043203	PL	a translator from c to a lambda-calculus representation	1996	4.566814647429718	6.926277258025468	1043230
1043506	Robotics	an itask case study: a conference management system	2008	5.825978449693536	7.062376881158168	1043533
1043569	Embedded	cp/m development system (abstract only)	1985	6.246656788498093	5.91586580066223	1043596
1043936	SE	compositional semantics for message sequence charts based on petri nets	2002	5.693295541135527	6.51567855357866	1043963
1044329	SE	using invariant functions and invariant relations to compute loop functions	2010	5.4361919314401135	6.4992049284392355	1044356
1044459	AI	reactive web agents with open constraint programming	2001	6.291309859967368	7.2131353719907105	1044486
1045501	PL	the flow of control notations pancode and boxcharts	1990	5.323029962429611	6.307137095960072	1045528
1045964	SE	finding failure causes through automated testing	2000	5.5555035296399975	5.791174990887152	1045991
1046443	SE	the role of pascal in software engineering	1987	6.255809898224162	6.661403251617867	1046470
1047144	Logic	implementation and application of automata	2017	5.64284759790216	5.601168707012539	1047171
1047623	Theory	using jflap to interact with theorems in automata theory	1999	5.2620041474951265	6.1441715236422585	1047650
1048294	Arch	a hardware algol machine	1982	5.345533867893638	5.819818865039183	1048321
1048610	Logic	using alloy in introductory courses of formal methods	2014	5.500375668660591	6.793208636693113	1048637
1048775	NLP	a tabular parsing algorithm with error recovery	1995	4.575568955714661	6.164544884380971	1048802
1048819	AI	trading legibility against implementability in requirement specifications: an experimental assessment	1995	4.63899171956546	6.269282239893318	1048846
1049354	PL	language emulator, a helpful toolkit in the learning process of computer theory	2004	5.931377721266414	6.483522450982753	1049381
1049677	SE	towards a client driven characterization of class hierarchies	2006	6.1272645879613465	7.357906385336988	1049704
1049965	PL	reversible object-oriented interpreters	1987	5.448702455198633	6.731795104302053	1049992
1050229	Logic	fsm2 - a scripting language interpreter for manipulating weighted finite-state automata	2009	4.761650763628935	6.616906834141232	1050256
1050842	HCI	testing data flow diagrams with parlog	1988	5.616050599341242	5.634507216738527	1050869
1051097	PL	debugging in gaplog: a model for execution of logic programs with delayed function calls.	1995	4.418721075263885	7.021291300484238	1051124
1051295	Logic	a classification and closure properties of languages for describing concurrent system behaviours	1981	4.634904879573421	5.649329503289341	1051322
1051384	SE	refactoring via program slicing and sliding	2006	5.272758631398144	7.412968219648312	1051411
1051679	PL	a model for implementing euclid modules and prototypes	1982	5.076067703296264	6.8030561614268485	1051706
1052253	HPC	the nestor library: a tool for implementing fortran source transformations	1999	5.924180407412207	6.563551717693641	1052280
1052498	PL	spider vs. prolog: computation control	2009	4.579346076309355	5.919545625397882	1052525
1052766	PL	dependencies in formal mathematics: applications and extraction for coq and mizar	2012	4.9479861722933585	6.413659959658854	1052793
1053127	PL	the metafront system: safe and extensible parsing and transformation	2007	5.131804369193929	7.0955825180375065	1053154
1053178	AI	efficient and off-the-shelf solver: jargsemsat	2016	5.587910507856559	6.515907122728319	1053205
1054123	EDA	high-level transformations for minimizing syntactic variances	1993	4.714700413046598	6.8258744214345715	1054150
1054563	DB	higher order applicative xml documents	2002	4.628154939751278	5.816772322728018	1054590
1054649	PL	an obj3 functional specification for boundary representation	1991	4.8308291880456204	6.94114411543149	1054676
1054841	PL	which model of programming for lisp: sequential, functional or mixed?	1991	5.898557760575942	6.084767947362816	1054868
1054989	HCI	the seven habits of highly effective data modelers (and object modelers)	1995	5.997542877106381	5.889620017340167	1055016
1055122	HPC	"""remarks on """"a comparison between pascal, fortran and pl/1"""" (with author's reply)"""	1981	5.278180597050207	6.1387853792262	1055149
1055499	PL	modular semantic actions	2016	4.895810485808662	7.232945437724028	1055526
1056285	DB	hybrid applications over xml: integrating the procedural and declarative approaches	2002	4.82552068977562	6.787435638706219	1056312
1056359	NLP	the quick check pre-unification filter for typed grammars: extensions	2005	4.4413048502264605	6.463517488718232	1056386
1056414	AI	developing parallel dependency graph in improving game balancing	2013	5.501261504161943	6.32283816925833	1056441
1056955	SE	non‐recursive top‐down syntax analysis	1979	5.504101582852342	6.703641595675732	1056982
1057799	PL	a methodology of parsing mathematical notation for mathematical computation	1996	4.3899322620621	6.130450384048765	1057826
1057848	Theory	a learning algorithm for deterministic finite automata using jflap	2009	4.524427613349744	5.884760146780626	1057875
1058134	Robotics	obtaining an sdl entity identifier using sdl/systemc co-modeling	2012	6.284900873895812	6.174456122904522	1058161
1058392	SE	formal protocol specification based on attribute grammars	1985	5.191708919840958	5.7099693329698	1058419
1058463	SE	a generic programming environment for high-performance mathematical libraries	1998	6.003229711371183	7.330489570104783	1058490
1059625	PL	ec++ - europa parallel c++. a draft definition	1996	6.057186228202144	6.541680855537188	1059652
1060401	SE	software tools for micro-analysis of programs	1992	5.250202966639458	6.663276998997627	1060428
1060608	SE	the automatic inversion of attribute grammars	1986	4.64725052607281	6.356065846108122	1060635
1061426	Logic	denotational semantics for concurrent constraint programs analyses	1994	4.4370968730332985	5.643404378522803	1061453
1061543	EDA	a petri-net based reasoning procedure for fault identification in sequential operations	2003	5.6918996446912775	6.3972823729856385	1061570
1061839	DB	sql/eer - syntax and semantics of an entity-relationship-based query language	1992	5.60133750558698	6.4351653275969305	1061866
1062007	PL	an spmd/simd parallel tokenizer for apl	2003	5.602627330011737	6.774776022782048	1062034
1062433	PL	mining the archive of formal proofs	2015	4.593880313040849	6.152339119559665	1062460
1062806	PL	beauty in the beast	2007	5.370731925886717	7.072200193953883	1062833
1063350	SE	deriving specifications from requirements: an example	1995	5.856267917600991	6.511703358540326	1063377
1063946	PL	name-passing style gui programming in the pi-calculus-based language nepi	2005	6.1659369149609065	7.3128055654095165	1063973
1065083	Logic	simtools: a software tool kit for discrete event simulation in pascal	1988	6.206199297017681	6.383588856478834	1065110
1066146	HPC	use of petri nets for proving correctness of concurrent process systems	1974	5.152310440915847	5.614712693272289	1066173
1066670	PL	morbig: a static parser for posix shell	2018	4.819520377512043	7.410941473492223	1066697
1066810	SE	concepts as syntactic sugar	2009	5.6134697430730585	6.802084197049982	1066837
1067261	Robotics	a note on a fractal architecture for modelling and controlling flexible manufacturing systems	1992	5.706815650402241	6.69293246993451	1067288
1067519	PL	an angry half-dozen	1998	4.8163287292612145	6.775284733572452	1067546
1068065	PL	design of the persistence and query processing facilities in o++: the rationale	1989	5.3100453160976215	7.332624021712202	1068092
1068285	Vision	"""static analysis: hard real time is hard, """"big time!"""""""	1992	5.325789522177773	5.815072540332861	1068312
1070395	Graphics	formal specification of graphic data types	1982	5.905020671901199	6.1768470436276015	1070422
1071646	Visualization	program perspectives: a relational representation of measurement data	1977	5.273878915175241	5.575369246052953	1071673
1071733	AI	block-oriented modeling of superstructure optimization problems	2013	5.13833429222298	6.17423047221963	1071760
1072456	PL	on the semantics of object-oriented data structures and path expressions	2013	5.051774038470196	7.173991910425916	1072483
1072559	PL	experiences using inmos proto-occam (tm)	1984	5.685360647805839	5.665295569999289	1072586
1072991	OS	a portable implementation of unity on von neumann machines	1993	5.512665244782599	6.435162176155326	1073018
1073032	Embedded	a soft plc ladder diagram edit software implemented based on table technology	2008	5.630503065671196	6.2682187456155525	1073059
1073927	PL	concept of the abstract program	2012	4.921200744360628	6.615435191461812	1073954
1075589	EDA	an adaptation of dynamic slicing techniques for logic programming	1998	5.000108702135528	7.445426271208367	1075616
1075661	EDA	a modular petri net used in synchronous communication of sequential processes.	2007	5.079025645175202	5.711379538034342	1075688
1075709	PL	integration of the standard template library and the microsoft foundation class	1999	5.7321654869293415	7.377537781724302	1075736
1076375	PL	generic pickling and minimization	2006	5.038843490972059	7.087430453257455	1076402
1076690	AI	a critical perspective on krl	1979	4.605371748015574	6.232649079311019	1076717
1077394	Theory	array theory and the nial programming language	1988	4.393920239393828	5.714205790883485	1077421
1077724	PL	domain specific meta languages	2000	5.277307824188447	6.67015566803579	1077751
1078185	AI	on the representation of objects with polymorphic shape and behaviour	1994	5.994473502407954	6.324068057489648	1078212
1079704	PL	countdown: a case study in origami programming	2005	4.391447401839617	6.634946715661802	1079731
1079763	SE	combining mascot with modula-2 to aid the engineering of real-time systems	1985	6.255768103162995	6.608498028739767	1079790
1081827	HCI	four non-deterministic programming exercises	2008	4.951210396395402	6.717830001409952	1081854
1082241	ECom	some examples of non-existent combinators	1993	4.454799283038301	5.86877164620525	1082268
1082412	PL	on the efficient implementation of combinators as an object code for functional programs	1984	4.744567359217777	6.798673387678868	1082439
1082898	DB	familial model of data	1984	4.53541375599567	6.714624106469975	1082925
1082909	DB	conceptual level concurrency control of relational update transactions	1988	4.636239287476255	6.487807874464724	1082936
1083156	SE	generating objects from c code - features of the coret tool-set	1999	6.187008671072869	6.861274173741492	1083183
1083165	DB	teaching a schema translator to produce o/r views	2007	5.010628121124649	6.02996778545946	1083192
1083976	AI	a pedagogic expert system shell in prolog	1988	5.827883611665348	6.220663689501245	1084003
1084799	PL	a reference interpreter for the graph programming language gp 2	2015	5.044498125253644	6.926849261528474	1084826
1084818	PL	a standard for a graph representation for functional programs	1988	4.765442159655562	6.373281335087039	1084845
1086124	NLP	hybrid dynamics in modelica: should all events be considered synchronous	2007	6.141910052140711	6.898847755470161	1086151
1086397	Arch	comparative studies made simple in gpflow	2008	4.7003470893036745	6.024339901190608	1086424
1087343	PL	experience report: ocsigen, a web programming framework	2009	6.002340423149066	7.280699164296505	1087370
1088074	DB	extending scala with database query capability	2010	5.28564111643612	6.999558446446577	1088101
1088156	PL	some ideas on data types in high level languages	1976	4.626537044073691	6.784527115458437	1088183
1088357	PL	context dependent analysis of bioambients	2006	5.267711750331461	5.668848530532516	1088384
1090216	PL	using apl2 in statistics	1989	6.006745284451733	6.056260581831029	1090243
1090400	PL	rebus: a snobol4/icon hybrid	1985	4.930770314018745	6.726288519613006	1090427
1090470	AI	the effect of data abstraction on loop programming techniques	1990	4.938727988176792	6.571701575003363	1090497
1090514	AI	a truth maintenance system for epistemic programming environment	2012	5.290716972614421	6.1861325042239175	1090541
1090815	Logic	rewriting as a unified model of concurrency	1991	5.3011663462078085	6.0234748897754224	1090842
1091399	PL	algorithm 290: linear equations, exact solutions	1966	4.808568463804182	6.205516803361544	1091426
1091660	ML	rnn : recurrent library for torch	2015	6.2803678385478685	6.499997717526441	1091687
1092044	HPC	enhanced reusability via polymorphic additive virtual methods in c++	1997	5.67542031103433	7.331343598784553	1092071
1092057	EDA	the first transaction, but not the last	2006	6.21130551560511	5.7358916579369215	1092084
1092469	DB	measurement-driven restructuring of object oriented applications	1993	5.216368273833539	5.973104228894469	1092496
1093000	PL	a typed representation for html and xml documents in haskell	2002	5.773637271292701	6.6540742801712565	1093027
1093071	SE	parse your options	2013	4.979887130958108	6.809044697551637	1093098
1093712	PL	handling type information when compiling a language with user-defined types	1981	5.801822815373108	6.476642784801089	1093739
1094298	PL	experiences in building a compiler for an object-oriented language	2003	5.3103148762315655	7.4133633206663605	1094325
1094452	PL	a scheme for little languages in interactive graphics	1991	5.792903636698452	6.878610764973423	1094479
1095204	DB	a program generator package for management of data files - the input language	1978	5.841529740373938	6.105923680101311	1095231
1095830	SE	module composition and system design for the object paradigm	1995	5.995821752040586	6.1411978370426485	1095857
1096490	EDA	archimedes: an approach to architecutre-independent modeling for high-level simulation	1992	6.2263221677319205	5.856539446498842	1096517
1097039	PL	content over container: object-oriented programming with multiplicities	2013	5.879334263787615	7.098676859213134	1097066
1097329	Logic	programming with very large graphs	1990	6.127244555338049	6.178128212650927	1097356
1097465	PL	semanol (73) a metalanguage for programming the semantics of programming languages	1976	4.612060694846863	7.1313801758776965	1097492
1097903	Robotics	double digit decimal multiplier on xilinx fpga	2009	5.780801182815912	6.3724368031652645	1097930
1098707	Mobile	compositional verification of a third generation mobile communication protocol	2000	5.530259777746204	5.914885816896803	1098734
1098840	PL	conceptclang: an implementation of c++ concepts in clang	2011	5.884949842839855	6.907712583392898	1098867
1098961	Logic	a programming language tailored to the specification and solution of differential equations describing processes on networks	2010	5.7574788681123295	7.19719195386775	1098988
1100903	Logic	abstract specification of structures and methods in symbolic mathematical computation	1992	4.59471401682817	6.636881736032822	1100930
1101091	PL	jovial and its documentation	1963	6.048639211525768	6.267857823984722	1101118
1101153	Arch	a regular architecture for operating system	1990	5.449653764312093	6.186384931418844	1101180
1102385	SE	intersection of parallel structuring and reuse of software components: a calculus of composition of components for parallel programs	1989	5.576049586608908	6.5345772983237955	1102412
1103394	SE	the metric based compiler - a current requirement	1992	6.2051678637695735	6.65592556905708	1103421
1103940	PL	abstract interpretation and optimising transformations for applicative programs	1982	4.453367182857443	5.6827663787367495	1103967
1104071	Logic	an estelle based test generation tool for modular specifications	1989	6.2947811932914295	6.49401870821975	1104098
1104083	SE	an empirical analysis of spreadsheet calculation	1988	5.3568371044312375	6.102857842854741	1104110
1104180	PL	a tour of tempo: a program specializer for the c language	2004	6.190982442738407	7.173838885464074	1104207
1105105	Arch	a*: a language for implementing language processors	1995	5.474330857851795	6.497699107612388	1105132
1105533	Robotics	communications for real-time industrial control: the design issues	1992	5.973392350823128	5.7599663338353215	1105560
1106510	PL	building efficient incremental ll parser by augmenting ll table and threading parse tree	1995	4.72627403841858	6.699906945301319	1106537
1106653	PL	calculating in an object-oriented iterator-view-generator framework	2000	6.293941073407062	6.388185525838517	1106680
1107249	PL	what are the correct results for the special values of the operands of the power operation?	2016	4.496507428326232	7.209494084585521	1107276
1107510	PL	loslan implementation of the ampl message-passing system	1984	4.91269407934289	6.900656731188978	1107537
1108447	PL	compiler generation from formal definition of programming languages: a survey	1981	5.691405777662566	5.749396802128088	1108474
1109363	PL	use of barrel in applications studies	1982	6.1062015955169535	6.5273040609496045	1109390
1109469	SE	planning with semantic attachments: an object-oriented view	2012	6.064163147681903	7.022200774902707	1109496
1111016	PL	the t-calculus: towards a structured programing of (musical) time and space	2013	5.969542405266224	5.773730880068585	1111043
1111245	PL	a portable lisp compiler	1981	5.370770381047944	6.757128939499996	1111272
1111763	PL	implementing modules in the coq system	2003	4.952842547045975	6.780190329192369	1111790
1112468	PL	evolution of graph-like programs with parallel distributed genetic programming	1997	4.794275801541602	6.453941523079586	1112495
1112481	PL	multi-paradigm programming using c++	2001	4.995229208988167	6.678437131096218	1112508
1113093	PL	tools for automatic compiler generation (panel discussion)	1978	6.11112739844051	6.655884006676649	1113120
1113642	PL	token scanning as a new scientific approach in the creation of protected systems: a new generation os microtek	2016	5.635310014048422	5.817589903044253	1113669
1113721	PL	on including part hierarchies in object-oriented languages with an implementation in smalltalk	1987	6.145727882352498	6.3465502052383975	1113748
1113819	PL	a translation grammar for algol 68	1970	4.806010182715314	6.690549160222751	1113846
1113994	PL	setlog, a tool for experimenting with new semantics	1991	4.6969801044371104	6.522159375812185	1114021
1114222	Theory	garbage collecting a heap which includes a scatter table	1976	4.434168977733907	6.624262550531089	1114249
1114245	AI	visual multiset rewriting: applications to diagram parsing and reasoning	2000	5.815997376929838	6.692313207086471	1114272
1114433	HPC	prolog at ibm: an advanced and evolving application development technology	1992	5.865035114675258	6.605544718544698	1114460
1114937	Logic	model checking compositional markov systems	2008	4.902932221022589	5.7250753779317165	1114964
1115427	SE	generation of behavior-driven development c++ tests from abstract state machine scenarios	2018	6.151039859669577	6.632487296945045	1115454
1115513	SE	drawing syntax diagrams in haskell	1997	6.113793389722776	6.5287459064075275	1115540
1115673	Logic	discussion: code generator specification techniques.	1991	5.3552202975903045	6.3411416590360234	1115700
1115703	NLP	tsql2 language specification	1994	6.27351405951625	6.676963018016392	1115730
1115921	AI	engineering executable agents using multi‐context systems	2002	6.128029448961724	6.5278563989773835	1115948
1116150	PL	a constraint-satisfaction parser for context-free grammars	2011	5.440890495690428	6.930714104250238	1116177
1116342	SE	reverse engineering processes, design document production, and structure charts	1992	6.2457527277822145	6.416862380808872	1116369
1116408	HPC	packing/unpacking using mpi user-defined datatypes for efficient data redistribution	2004	5.361849332794019	5.719898634762997	1116435
1116497	PL	a hybrid implementation of a process-oriented programming language for system simulation	1991	6.036354157755196	6.702728588292072	1116524
1117473	SE	author retrospective for semantical interprocedural parallelization: an overview of the pips project	2014	5.886606120779582	6.5203791531658055	1117500
1117514	PL	object-oriented programming support for classic	1996	5.968961454965737	5.714914998866003	1117541
1118394	AI	actions with durations and failures in bdi languages	2014	5.76183840100301	6.849997678658638	1118421
1118517	PL	software reusability through versions	1996	5.070681264735041	7.186351739480048	1118544
1118799	AI	a brief history of computing	2012	5.05519431147578	7.339720556381869	1118826
1118880	SE	generating error recovery in a compiler generating system	1976	4.713337817267283	6.4956089317369425	1118907
1119321	Logic	workshop on analysis of concurrent systems attempt at problem 3: the firing squad	1983	4.9638485207112	5.6937384204478585	1119348
1119459	PL	practical experiences with automatic repair of syntactical errors or syntactical error repair in the das compiler	1984	4.72945694900962	7.085712503698742	1119486
1119534	Logic	ultimate automizer with an on-demand construction of floyd-hoare automata - (competition contribution)	2017	5.398266423272465	7.020147323645308	1119561
1119860	PL	algorithm 398: tableless date conversion	1970	4.886326395416284	6.320596320223606	1119887
1119932	SE	treatment of tab characters by a compiler	1985	5.368515540344821	6.5894845433461775	1119959
1120005	HPC	converting interpreters into compilers	1988	4.815756266917932	7.325591856689696	1120032
1120230	AI	canonicalization in the prikl reasoner	2013	4.512148901077207	6.094371281087091	1120257
1120536	PL	twelf and delphin: logic and functional programming in a meta-logical framework	2004	4.56416228225632	7.0043644053976335	1120563
1120990	Logic	the ccsds protocol validation programme inter agency testin using lotos	1990	6.192749594101455	5.641616066095763	1121017
1122422	PL	distributed semi-intelligent backtracking for a stack-based and-parallel prolog	1986	4.551937206894164	5.638773894439054	1122449
1122572	HPC	an overview of fortran 2003	2004	5.762597903680994	6.722502561883313	1122599
1122733	PL	a simple generic library for c	2006	5.5088581110839545	7.106398571095296	1122760
1122824	AI	a rule language for modelling and monitoring social expectations in multi-agent systems	2005	4.790193296238434	5.5448162674146415	1122851
1123169	AI	comparision between features of cbo based algorithms for generating formal concepts	2016	5.768668941652048	6.0492499743775685	1123196
1123208	PL	the function concept in c++: an empirical study	2009	4.78361704985418	7.292358433120867	1123235
1123265	PL	implementing a functional spreadsheet in clean	1995	5.208689055112768	7.33445721067153	1123292
1123673	PL	a monadic interpretation of execution levels and exceptions for aop	2012	4.683740823127387	7.160739812630432	1123700
1123823	PL	object-oriented programming with induction	2000	6.304165988494384	6.9455960102077245	1123850
1123889	PL	the chemical machine: an interpreter for the higher order chemical language	2011	5.791012767399218	6.041093893130027	1123916
1124214	Theory	letter to the editor: defense of algol 60	1961	4.501233429123215	6.424375459967829	1124241
1124321	PL	exception handling and real time features in an object-oriented concurrent language	1989	5.563588458530208	6.335689518591477	1124348
1125505	Embedded	modeling resource management problems with activity-oriented petri nets	2012	6.174476956282265	6.179733477942673	1125532
1125517	Logic	the abaco system - an algebraic based action compiler	1998	4.467156124213742	6.407098543807003	1125544
1125759	Vision	validation of image defect models for optical character recognition	1996	5.583895016536023	5.9782518938842095	1125786
1126385	Theory	regex and extended regex	2002	4.391907108506788	6.797595883853277	1126412
1127169	PL	program development by inductive stepwise refinement	1985	4.389694571494718	7.022813930188082	1127196
1127494	AI	efficient model transformations by combining pattern matching strategies	2009	4.471079211756375	6.157326388344486	1127521
1128733	DB	conformance testing in systems with semicontrollable interfaces	2000	5.986148975960425	5.63477192084731	1128760
1129052	Logic	an aggregation method of markov graphs for the reliability analysis of hybrid systems	2006	5.36978828551903	5.689573615431723	1129079
1129573	AI	techniques for the automatic selection of data structures	1976	5.942944084214005	5.985758212820443	1129600
1129894	SE	algebraic specification and fundamentals for transformational program and meta program development	1989	5.863961003652341	6.998374269261925	1129921
1130773	PL	probabilistic model for code with decision trees	2016	5.977169089425449	6.970729548848769	1130800
1130788	PL	how to make axiom into a scratchpad	1994	5.0334325653620935	6.768622763304168	1130815
1131381	PL	executable english	2006	5.702460402126156	6.688289896384476	1131408
1131386	EDA	model checking method for spa page transition based on component-based framework	2018	6.201871214109374	5.98257245800825	1131413
1131494	HPC	writing portable fortran programs for microcomputer	1985	5.814795718550318	6.497600113067137	1131521
1131845	PL	a proposal for calling conventions for apl defined functions	1996	6.2030963074808945	6.677880705046397	1131872
1132418	AI	agent-oriented approach based on discrete event systems (wip)	2013	5.98253445588963	5.683330692509721	1132445
1132440	ML	a prolog debugger based on a refined box model	1990	5.393516194657521	5.605813563099841	1132467
1132803	DB	on a new approach to representation independent data classes	1977	4.52751886914762	5.876204102594053	1132830
1133512	NLP	to decode short cryptograms	1994	4.726535301828212	6.036697173724468	1133539
1133810	PL	translation schemes for the hp java parallel programming language	2001	5.714537834131969	6.918126382585122	1133837
1134561	PL	starlet: an affix-based compiler compiler designed as a logic programming system	1990	5.427722136096686	7.013400856007952	1134588
1134604	PL	linear logic	2010	5.497914154436573	5.846479733885237	1134631
1135361	AI	staple: an agent programming language based on the joint intention theory	2004	5.798302222791192	6.274510586260598	1135388
1135987	AI	parsing graphic function sequences	1991	5.1420912812344906	6.444040083541262	1136014
1136517	HPC	exposing fortran derived types to c and other languages	2008	6.201286022398414	6.031970587835168	1136544
1136956	Logic	defining differentiation and integration in z	1998	6.023960553749037	5.632465706890284	1136983
1137146	PL	definition of virtual reality simulation models using specification and description language diagrams	2013	6.271525843852676	6.069726491871543	1137173
1137235	HPC	user program performance in virtual storage systems	1973	5.871367412163749	6.632311444097228	1137262
1138399	PL	a portable high-speed pascal to c translator	1989	5.585144219131725	6.714437740778675	1138426
1139193	SE	enhancing the programmability of spreadsheets with logic programming	2007	6.168282331967123	6.3688016837569466	1139220
1139245	PL	fooling the user of a programming language	1977	5.334928008840705	6.770962117954363	1139272
1139654	Logic	efficient controlling of parsing-stack operation for lr parsers	1999	4.4755806771353885	6.2842355943490364	1139681
1139862	PL	on sets of numbers recognized by push-down automata	1972	4.829540035330566	6.2611458631098404	1139889
1140034	PL	javarag: a java library for reference attribute grammars	2015	6.0184809599774205	7.445107912840879	1140061
1141607	Logic	derivation of useful execution trees from lotos by using an interpreter	1988	5.181323472748217	5.804855493152218	1141634
1141633	SE	do-select reconsidered	1983	4.792268178383557	5.7051224869054495	1141660
1141955	DB	an integrated information system powered by prolog	2003	5.77819935586067	6.797152248491972	1141982
1143377	Logic	consistent extension of components in presence of explicit invariants	1998	5.135001385113601	6.952196824302513	1143404
1143963	PL	notes on typed object-oriented programming	1994	6.109339103136548	6.553327165873911	1143990
1144318	PL	recipes for coffee: compositional construction of java control flow graphs in groove	2018	4.955918030822112	7.366312565664328	1144345
1144486	DB	efficient binary i/o of idl objects	1987	5.582812907285752	6.6524827052271815	1144513
1145052	SE	formal specification and automatic programming	1976	5.528733640574805	5.79824367422807	1145079
1145185	PL	program generators and the tools to make them	2004	5.8145195896741875	7.273735298769657	1145212
1145562	PL	scalable lcf-style proof translation	2013	4.948453289173921	7.01336980679294	1145589
1145877	Logic	fsa utilities : a toolbox to manipulate finite-state automata	1996	4.41715044581045	6.676683377438269	1145904
1147591	SE	algebraic specification of exception handling and error recovery in abstract data types	1983	5.505532910748432	6.586455977255751	1147618
1147843	AI	applying logic programming to the specification of complex applications	1997	5.855187170381937	6.806007318430162	1147870
1148112	PL	a different solution for improving the readability of deeply nested if-then-else control structure	1984	4.592080461326944	6.481607834537875	1148139
1148299	PL	run-time diagnostics in pascal	1985	5.827534923667876	6.694509002144571	1148326
1148358	Logic	from timed automata to stochastic hybrid games model checking, synthesis, performance analysis and machine learning	2017	4.8539808022701445	5.7943521194836665	1148385
1148564	Logic	a new approach to deterministic execution testing for concurrent programs	2000	4.969009741430862	5.688603581665803	1148591
1148747	Logic	a resource configuration method for liveness of a class of petri nets	2016	5.077608514481036	5.601264615116763	1148774
1149260	PL	a graphical programming system for molecular motif search	2006	6.062181930899849	6.257755301245132	1149287
1149746	Logic	cbmc - c bounded model checker - (competition contribution)	2014	5.751831649865791	6.054979708105358	1149773
1150026	PL	manydsl - one host for all language needs	2017	5.473197495432539	7.293657139252907	1150053
1150233	NLP	incremental semantic evaluation in language-based editors	1992	5.48874459341725	6.525518720784572	1150260
1150706	Logic	on proving program correctness by means of stepwise refinement method	1980	5.5038983945260815	5.586282568699901	1150733
1151073	PL	on the bright side of type classes: instance arguments in agda	2011	4.4128817182219375	7.421266156434512	1151100
1151122	HCI	automating the debugging process of pascal syntax errors	1996	5.9194021124057725	5.950918874639178	1151149
1151384	Arch	"""the frequency of dynamic pointer references in """"c"""" programs"""	1988	5.482692339266619	6.728432226028737	1151411
1152507	Embedded	modeling software transactional memory with anylogic	2009	6.186063945393896	5.980460186847049	1152534
1152940	PL	on compiling embedded languages in lisp	1980	5.201710861670292	7.112861621348207	1152967
1153204	AI	an experiment in using golog to build a personal banking assistant	1996	5.005597024528226	6.206538823770095	1153231
1153286	PL	from lisp to ruby to rubinius	2010	5.861855474313425	6.544945535399614	1153313
1153653	PL	formal definition of programming language standards	2003	4.891829642427085	5.993491786673638	1153680
1153904	Vision	selective multiple inheritance	1994	4.380470998096362	5.8598712970946805	1153931
1153923	HPC	an application of irena to systems of nonlinear equations arising in equilibrium flows in networks	1993	6.049472951822366	5.969374310787812	1153950
1154899	PL	insecurities in fortran do-loops	1986	5.523127300671297	6.36792002989464	1154926
1155127	PL	from planner to conniver: a genetic approach	1972	5.171679607097954	6.019799600368878	1155154
1155680	PL	making form follow function: an exercise in functional programming style	1987	5.170022673779492	6.725130747965848	1155707
1156152	PL	what does modular-2 need to fully support object oriented programming?	1988	5.887472635036214	7.392105677533253	1156179
1156362	HPC	partial evaluation of matlab	2003	5.24781194691408	6.446464820271897	1156389
1157668	Mobile	finding a solution, all solutions, or the most probable solution to a temporal interval algebra network	2005	4.660183964662621	5.62410761796731	1157695
1158034	OS	the little meta translator writing system	1983	5.521534773556744	6.805510014730554	1158061
1158511	NLP	tools for automatic compiler generation (panel discussion)	1978	6.2823295259084855	6.672937015400811	1158538
1158704	PL	xstep: a markup language for embodied agents	2003	6.2217368196228175	6.285542111005813	1158731
1158847	NLP	guided grammar convergence. full case study report. generated by converge::guided	2012	5.7097444771874155	6.9247631175858375	1158874
1159650	SE	"""comments on """"language design for program manipulation"""""""	1994	6.106101262644737	6.305881587072977	1159677
1160554	PL	orbit: an optimizing compiler for scheme (with retrospective)	1986	5.44999586647067	6.828367083768866	1160581
1161520	PL	automatic coding for the ibm 701	1955	4.910125572775507	6.661533432023906	1161547
1162120	Embedded	developing real-time multi-agent systems	2004	5.504495752413333	5.9479550662370375	1162147
1162429	Arch	comsl: a communication system simulation language	1970	6.074650333155473	6.0899574089451125	1162456
1162780	Logic	marcie's secrets of efficient model checking	2016	5.06887206963196	5.5471140590270425	1162807
1163166	NLP	adapting dialog call-flows for pervasive devices	2005	4.54189136077141	5.974669914985089	1163193
1163307	SE	precis: inferring invariants using program path guided clustering	2011	5.345078350228934	7.343682886176571	1163334
1163423	PL	txl: a rapid prototyping system for programming language dialects	1991	5.897354210323219	7.158227119386063	1163450
1164160	PL	on the integration of classboxes into c#	2006	5.75328161840841	7.29190065185362	1164187
1164206	PL	on the exchange of information	1970	6.189352101368071	6.296041372300415	1164233
1164272	PL	automatically solving simultaneous type equations for type difference transformations that redesign code	2015	5.343287826295005	7.3568964874121345	1164299
1164299	SE	packup: tools for package upgradability solving	2012	4.948964009416628	6.077439238319743	1164326
1164713	PL	a purely functional computer algebra system embedded in haskell	2018	4.390585043697786	7.2564295562398895	1164740
1164805	PL	a type system for hybrid intensional-imperative programming support in gipsy	2009	4.426842387939738	7.416237759546517	1164832
1165545	EDA	representation in cad: models and semantics	1985	6.171675050564728	5.566280726321753	1165572
1166218	PL	portability of prolog programs: theory and case-studies	2010	5.965715515731125	6.819012190981578	1166245
1166572	PL	a theory of tagged objects (artifact)	2015	4.6408318115194875	7.180779043717058	1166599
1166780	Theory	crypto-fraglets: networking, biology and security	2006	5.28485432976058	6.4750500013169825	1166807
1167047	ML	nps: a neural network programming system	1990	5.5152999040190105	6.488161254966098	1167074
1167325	EDA	real-time systems - abstractions, languages, and design methodologies	1992	5.862190166146548	5.6405842606244825	1167352
1167539	HPC	a performance comparison between plm and a m68020 prolog processor	1987	6.1093936275583705	7.000117385723304	1167566
1167764	Web+IR	scribe support in gnu emacs	1989	6.263431798913813	6.784838453324461	1167791
1168009	PL	product grammars for alignment and folding	2015	4.42256966799204	6.714845671986269	1168036
1168549	Logic	fact: a tool for code generation from communicating automata	2005	5.5647674433433405	5.535563757088052	1168576
1168681	OS	an editor for revision control	1987	5.8140151817879415	6.868806450041126	1168708
1169001	PL	cluster: an informal report	1991	6.258732018003397	5.8742509873123225	1169028
1169402	Logic	dynamic inheritance in a statically typed language nordic journal of computing	1999	5.645250157460881	5.642282006459108	1169429
1170774	PL	target code selection by tilling ast with the use of tree pattern pushdown automaton	2014	5.147803468376519	6.995992917993021	1170801
1171547	EDA	an experiment in language design for distributed systems	1984	6.154628340483218	6.749318419783598	1171574
1171754	Logic	the use of theorem provers in the teaching and practice of formal methods	1997	5.606889263613644	6.403050716796559	1171781
1171969	Graphics	algorithms: algorithm 335: a set of basic input-output procedures	1968	5.144306608782872	6.096885071397308	1171996
1171978	SE	an inheritance flow model for class hierarchy analysis	1998	5.607239822906385	7.388732615371563	1172005
1173318	PL	usage of generic programming on hackage: experience report	2013	6.215243828001287	7.1152399895684075	1173345
1173442	Arch	programming pearls: tricks of the trade	1985	5.352768075282613	6.276671369545277	1173469
1174401	HCI	some prolog macros for rule-based programming: why? how?	2002	5.709725679147468	5.623474393558602	1174428
1174689	PL	control computations and the design of loop control structures	1978	4.7875491862885236	6.697230586987947	1174716
1174695	PL	rocs: an object-oriented class-level testing system based on the relevant observable contexts technique	2000	4.919463420806822	7.231713781178009	1174722
1175477	NLP	structure sharing with binary trees	1985	4.4837779400014215	6.3171745413220615	1175504
1175895	PL	on the design of programming languages including mini algol 68	1975	4.793733168522354	6.517387933670299	1175922
1176742	PL	experience with an interactive basic machine implemented using the burroughs b1700	1978	5.959302655232987	5.681799072707354	1176769
1176811	Arch	an architecture for analysis	2018	5.6412588021121755	6.524563756178969	1176838
1176949	DB	implementing a finite-domain clp-language on top of prolog: a transformational approach	1994	4.410918837223952	5.682432131811062	1176976
1176980	HCI	specifying and locating hierarchical patterns in event data	2004	5.261267091203193	6.09419449892082	1177007
1177069	PL	a transformational approach to binary translation of delayed branches	2003	5.053640725898947	7.3005541943969074	1177096
1177176	HCI	interactive proof presentations with cobra	2016	5.919325275893327	6.364579460849332	1177203
1177298	PL	compiling haskell by program transformation: a report from the trenches	1996	4.748554524325373	7.42525067053954	1177325
1177302	PL	data types are values	1985	5.014774252761284	6.222855130326726	1177329
1177578	Logic	verification, model checking, and abstract interpretation	2014	5.0388427435158425	6.171881233250861	1177605
1177833	ML	growing adaptive neural networks with graph grammars	1995	5.078180428233294	6.4387189414401504	1177860
1178673	DB	tabular expressions operators	2012	5.682178879022717	6.711440761626274	1178700
1178854	PL	waving a language-independent web	1989	5.369964364151574	6.9005897096293864	1178881
1180329	NLP	an attribute grammar with common attributes and its evaluator in prolog	1988	4.579604621137482	6.6271762531120135	1180356
1180533	NLP	performance evaluation of formally specified systems: the integration of sdl with hit	1996	6.107449979027159	5.663267314557233	1180560
1180564	Logic	robin milner: the elegant pragmatist	2010	4.511033214158888	6.0674766995088385	1180591
1182813	Robotics	integrating object and agent worlds	1992	5.486042461360941	6.349166274010153	1182840
1183374	Logic	rewriting as a unified model of concurrency	1990	5.283982725337905	6.016737049338827	1183401
1183890	NLP	from an informal textual lexicon to a well-structured lexical database: an experiment in data reverse engineering	2001	5.708145059065088	6.440370054253129	1183917
1184079	PL	a parallel logic programming language for pepsys	1987	4.436250114085159	6.04821185641035	1184106
1184225	PL	the essence of inheritance	2016	5.76424175570822	6.8745583513548665	1184252
1184458	PL	persistent functional languages: toward functional relational databases	2014	5.558509474583875	6.977298804106778	1184485
1185587	HCI	towards a formal representation of interactive systems	2014	5.070642935675618	6.517532656147858	1185614
1185814	Robotics	a combinatorial approach to quantify stochastic failure of complex component-based systems_the case of an advanced railway level crossing surveillance system	2007	5.1766536237805285	5.588520480421467	1185841
1186434	PL	current status of a portable lisp compiler	1982	5.745599172317398	6.659318796922812	1186461
1186509	PL	extending attribute grammars to support programming-in-the-large	1994	4.534600311509135	6.306649948151128	1186536
1186932	EDA	powerful trace facility for the mc68000 microprocessor system	1985	6.167999360360091	5.970451399221384	1186959
1187416	HCI	interactive rule-based specification with an application to visual language definition	2001	5.9478262130376045	6.916084378586002	1187443
1187591	OS	evaluating forth in the windows environment	2003	5.657733907930921	6.697993401089982	1187618
1187874	SE	evaluation and optimisation of incremental processors	2011	6.066361439072143	5.5457125852584115	1187901
1188080	DB	interfaces and extended ml	1994	6.152473909590147	6.8289526009387735	1188107
1188625	PL	the algebraic structure of interfaces	2003	6.030614388483218	7.404006066677692	1188652
1188814	AI	enhancing theorem prover interfaces with program slice information	2007	4.467174536550068	5.9743977389089595	1188841
1188872	PL	tracing offensive values from exceptions	1983	5.7488650759904845	6.440921695127258	1188899
1189038	PL	towards interactive object-oriented programming	2015	4.8663046315472736	6.591952080567152	1189065
1189131	SE	testing against formal specifications: a theoretical view	1991	4.4736249846650455	5.978320806907437	1189158
1189326	Robotics	compact delivery support for reduce	1995	5.8968992519248715	6.825187782553246	1189353
1189654	PL	equivalent transformations of heterogeneous meta-programs	2013	4.633588621614781	6.653758466453358	1189681
1189771	NLP	a system for designing fast programming language translators	1969	4.621468519707818	6.622642542453443	1189798
1189956	AI	an algorithmic approach to large scale problem solving	1977	4.617788345217178	5.5567053402795015	1189983
1190136	EDA	tutorial: high level tools for knowledge systems design	1989	6.304584345909253	5.65482122067028	1190163
1190951	PL	parametrized programming in lileanna	1993	5.3984014589441385	6.777523572907139	1190978
1190956	PL	an algol compiler: construction and use in relation to an elaborate operating system	1966	5.769030959183981	6.530899240550118	1190983
1191210	Robotics	a selection framework of multiple navigation primitives using generalized stochastic petri nets	2005	6.135492870787786	6.380624009454988	1191237
1191557	Logic	formal verification of an incremental garbage collector	2003	5.197085673565867	5.953177021049372	1191584
1191788	SE	case studies of application of probabilistic and statistical model checking in game design	2015	5.863872142630767	5.979186402337778	1191815
1191915	DB	geometric algebra for electrical and electronic engineers	2014	4.973272402253863	6.025940820127717	1191942
1191993	PL	toward a practical module system for acl2	2009	5.322402718017943	7.257973419592527	1192020
1192248	NLP	parsing schemata for grammars with variable number and order of constituents	2000	4.507178281197231	6.168002366236767	1192275
1192522	PL	common programming language ambiguity	1982	5.221473291550094	6.995934288670154	1192549
1193376	OS	practical perl: error handling patterns in perl	2005	6.203464463008249	7.1762278210643355	1193403
1193849	PL	solving the ttc 2011 compiler optimization case with gretl	2011	5.622182425605887	7.030008510230227	1193876
1194236	DB	string-pattern matching in a visual programming language	1997	6.183086462610638	6.349829179871057	1194263
1194340	Graphics	cuter and sifdec: a constrained and unconstrained testing environment, revisited	2003	6.0804877691018895	6.7569818970971385	1194367
1194346	PL	the application of fortran to automatic translation	1967	6.206375592595802	6.333059353789285	1194373
1194363	NLP	enforcing security policies using algebraic approach	2008	6.0939953384924666	6.370275229733696	1194390
1194998	PL	program fragments, linking, and modularization	1997	6.117309554156755	7.281346934276053	1195025
1195374	Arch	a macromodular systems simulator (ms2)	1967	6.089707595165111	6.3971599773368375	1195401
1195498	Logic	a toolkit for generating and displaying proof scores in the ots/cafeobj method	2006	5.254905194819417	7.379582261145344	1195525
1195579	AI	rack: a parser generator for ai languages	1990	5.453000585045213	6.917461352758815	1195606
1195788	DB	inheritance hierarchy design in object-oriented databases	1999	5.719284141977735	6.677394014371853	1195815
1196071	PL	compilation scheduling for the java virtual machine	2005	5.529275834085069	5.559140173891126	1196098
1197328	Logic	a model for a lambda-calculus extended for dataflow computation	1992	4.806574759799115	5.539043703487613	1197355
1198506	DB	modular data processing systems written in cobol	1962	6.122957787462533	5.673851765221344	1198533
1198901	PL	attribute grammars: theory and applications	1981	4.423764043215829	6.879090692465988	1198928
1199058	PL	lr(1) parser generation system: lr(1) error recovery, oracles, and generic tokens	2011	4.803530696084132	6.5896859796767	1199085
1199248	EDA	xtracker, a graphical tool for parallel simulations	1995	6.299085586625191	5.942466706388063	1199275
1199961	PL	version control in families of large programs	1987	4.477994726559347	7.143283080231751	1199988
1200562	PL	abstract data types and algebraic semantics of programming languages	1982	4.753864607308369	5.982287185407658	1200589
1200862	PL	a case for using procedure calls for i/o	1989	5.351986832205591	6.457025893364148	1200889
1201994	NLP	locally governed trees and dependecy parsing	1988	4.391604294474926	5.920258876133871	1202021
1202001	PL	union types for object-oriented programming	2006	4.763865485010415	7.443253710773963	1202028
1202452	OS	in the beginning	1973	5.396317317884178	6.400084657912581	1202479
1202631	SE	a class of generalised stochastic petri nets for the performance evaluation of multiprocessor systems	1983	5.062163724848633	6.0013484195557485	1202658
1202689	Logic	deductive verification of concurrent programs and its application to secure information flow for java	2015	5.144932352297168	6.997906085502215	1202716
1202822	PL	the interactive lazy ml system	1993	5.138081932161247	6.6700209578830005	1202849
1203509	Logic	hardware and software: verification and testing	2012	5.897749921091906	5.562396382591697	1203536
1203618	PL	the lrltran compiler	1968	5.311814347107847	7.108296418302778	1203645
1203962	PL	prototyping generic programming in template haskell	2004	5.177061128149104	7.297435538438963	1203989
1204057	PL	producing good code for the case statement	1985	4.601033364302194	7.337095252288762	1204084
1204304	PL	an approach to programming based on concepts	2007	5.310839060648927	7.12133918072111	1204331
1204338	PL	incremental ll(1) parsing in language-based editors	1993	5.700477903442299	6.310121975688219	1204365
1205368	PL	agents as multi-threaded logical objects	2002	4.890799653043773	6.69240858936446	1205395
1205530	Logic	three-valued specification language and its application to the automatic verification of c programs	1998	4.6502294050736275	7.174051896728478	1205557
1206117	AI	zephyr: toward true compiler-based programming in prolog	1992	5.852538681023416	7.216111990961576	1206144
1207321	EDA	reliable design with multiple clock domains	2006	6.233373265233016	6.108921448114918	1207348
1207604	PL	partial evaluation of prolog programs and its application to meta programming	1986	5.000803521755165	5.883929070019804	1207631
1207783	Robotics	the specification of distributed sensing and control	1985	5.425602417396097	5.629766507608558	1207810
1208286	DB	nested arrays and operators: some issues in depth	1992	4.7392789680867375	6.398444243729022	1208313
1208435	SE	algorithm discovery with monte-carlo search: controlling the size	2017	4.6226327511583865	6.602409424562727	1208462
1208649	AI	modular inference trees for expository reports	2005	5.215926938106684	6.41986075507447	1208676
1208684	Logic	formal verification logic for hybrid security protocols	2003	5.648259071761919	5.891232902501558	1208711
1209047	Logic	on models for time-sensitive interactive computing	2002	4.7005369914833794	5.566250829104649	1209074
1209159	PL	extended pascal is no problem	1989	4.768510837108933	6.676293508374222	1209186
1209227	PL	isabelle/pide as platform for educational tools	2011	5.597728573269155	6.880498574202381	1209254
1209638	PL	floating point performance of common lisp	1998	4.990178260422822	7.315189485282729	1209665
1209667	Arch	a pms level language for performance evaluation modelling (v-pms)	1976	5.203955312051231	7.383378051903874	1209694
1211184	PL	challenges in using opentheory to transport harrison's hol model from hol light to hol4	2013	5.004830478162962	7.419796296523313	1211211
1211459	PL	design patterns for lazy evaluation	2000	5.930383320036252	6.252746895891894	1211486
1211498	PL	static validation of xsl transformations	2007	6.248263587980825	6.787148652432183	1211525
1212194	DB	mathematical structure of nonarithmetic data processing procedures	1962	5.108976832035797	6.225810000561506	1212221
1212942	PL	typecase: a design pattern for type-indexed functions	2005	4.390366648601411	7.109652699656345	1212969
1213456	PL	finding smalltalk methods	1985	4.431386666110506	6.322957298852758	1213483
1213738	AI	specialization of perceptual processes	1993	5.880391208361671	5.618273879751858	1213765
1214953	Logic	machine-assisted parameter synthesis of the biphase mark protocol using event order abstraction	2009	5.014728617053966	7.077288293703576	1214980
1215166	AI	composable planning with attributes	2018	4.9058183878417525	5.581375601385028	1215193
1215611	SE	an algebraic foundation for higraphs	2001	5.86603405914822	7.160237378411151	1215638
1216045	SE	the toy language syndrome	1978	5.452450350361541	6.655564708758317	1216072
1216369	SE	quantitative models of cohesion and coupling in software	1995	5.559818313391178	6.485393523356966	1216396
1216626	PL	negative and zero subscripts in fortran ii programming for the ibm 1620	1965	5.537841527640486	5.834940023906663	1216653
1216865	PL	pide as front-end technology for coq	2013	5.497126398242333	6.625864199374987	1216892
1217202	PL	"""""""on-the-fly programming: using code as an expressive musical instrument"""""""	2004	6.300827373602218	6.717509362300343	1217229
1217726	PL	software engineering research and applications	2003	4.889611545215407	7.26169342544907	1217753
1218169	AI	netlog - a concept oriented logic programming language	1992	4.6761075899719415	6.189798567395933	1218196
1221008	Logic	a construction of concurrent systems by means of sequential solutions and concurrency relations	1981	4.9648122471891485	5.79754504992609	1221035
1221397	Logic	a model checker for a partial order based model of concurrency	1998	4.3766253967005495	6.7311182118798625	1221424
1221758	Crypto	abstract interpretation of higher order functions using concrete data structures (summary)	1992	4.382561260642188	6.62674439761279	1221785
1221921	PL	a new mixing programming method	2008	6.030378815000253	6.264334550878612	1221948
1222096	PL	on the design of an extensible platform for flow analysis of java using abstract interpretation	2003	5.7661832598249525	6.3851084752922045	1222123
1222276	AI	the semantics of mallet-an agent teamwork encoding language	2004	5.407563368856539	6.04061028948329	1222303
1222277	PL	modula-2 and oberon	2007	5.827427447211485	6.742910596631432	1222304
1223301	PL	current trends in logic programming: prospects and promises	2000	5.165655847858335	6.081975469449527	1223328
1223569	AI	gelisp: a library to represent musical csps and search strategies	2009	6.29989658550545	5.805485566670793	1223596
1223966	Theory	the present state of the guha software	1981	5.464034744885956	6.2721579885548095	1223993
1224279	PL	non-recursive make considered harmful: build systems at scale	2016	5.406611266833974	6.919891185131234	1224306
1224345	PL	layout-sensitive generalized parsing	2012	5.065366440262016	7.22209106681487	1224372
1224419	NLP	the use of a procedure-oriented language for process-oriented simulation	1978	5.8988697434509625	6.203469889963634	1224446
1225298	PL	mincaml: a simple and efficient compiler for a minimal functional language	2005	5.38044027668509	6.8787828941313744	1225325
1226075	NLP	programming language processors	1966	5.5624243651858665	6.395409156596976	1226102
1226140	PL	data types and program correctness	1975	5.604746482903634	7.053614414433429	1226167
1226515	Logic	rewriting, induction and decision procedures: a case study of presburger arithmetic	2001	4.471763285849799	7.317226001913003	1226542
1227482	Logic	a strong part of concurrency	1986	4.37632191417881	5.800051380482117	1227509
1227539	AI	on the classification of visual languages by grammar hierarchies	1997	5.523345508223194	5.876565791059494	1227566
1228190	Logic	inheriting synchronization protocols via sound enrichment rules	1997	4.9436821988372195	6.7378967463300565	1228217
1228729	PL	culturing objects to achieve efficient implementations and entity interactions in object-oriented programming	1995	6.163748010180894	6.848434223538202	1228756
1228977	Graphics	an augment interface for brent's multiple precision arithmetic package	1980	5.364262030224481	6.568480619447435	1229004
1229115	ML	converting midi notes to abc notes in pencil code	2016	5.2219836486496005	6.138724281464919	1229142
1229131	PL	a system to improve incorrect programs	1979	5.783871120423278	6.365364888152658	1229158
1231080	DB	the meaning of names in pl/i	1984	5.542767314115367	6.453188316109976	1231107
1232770	HPC	array handling in cobol compilers	1977	5.20420789132174	6.354324502012028	1232797
1233419	Logic	land*: an and with local bindings, a guarded let* special form	1998	4.447091261684778	6.230723814735723	1233446
1233702	Graphics	redlog: computer algebra meets computer logic	1997	4.5725793489280235	6.05219470071401	1233729
1233777	Arch	examining compiled code	1989	5.713051658941407	6.724293320414096	1233804
1234503	AI	static analysis of parallel logic programs	1988	4.557324128761336	5.536201397204637	1234530
1234601	AI	"""comment on """"expert systems, microcomputers, and operations research"""""""	1986	5.720020382152304	6.4571206103588965	1234628
1234665	AI	coupling of symbolic and numerical computations on a microcomputer	1988	6.085687413679057	5.706200325375124	1234692
1234778	PL	haskell#: parallel programming made simple and efficient	2003	4.646703241238648	6.2406400979080985	1234805
1236440	Vision	theories of programming: top-down and bottom-up and meeting in the middle	1999	6.070928930265932	6.440702708655164	1236467
1236668	PL	commercial uses: going functional on exotic trades	2009	6.2579957937435795	6.910033645882742	1236695
1237433	EDA	handshaking in kansas lava using patch logic	2012	5.641662787000502	7.155562996868322	1237460
1238077	EDA	synthesis of optimal workflow structure	2006	5.050870331323707	5.551911217092488	1238104
1238563	PL	"""a universal scripting framework or lambda: the ultimate """"little language"""""""	1996	5.62391191422563	6.908100257072697	1238590
1238752	PL	direct implementation of compiler specifications or the pascal p-code compiler revisited	1984	4.891135968863022	7.2018080279720715	1238779
1238894	PL	java for scientific computation: prospects and problems	2001	5.7515996142698205	6.7516609700085	1238921
1239208	Logic	10252 executive summary - game semantics and program verification	2010	4.548107199324276	5.64824631307292	1239235
1239959	Embedded	a quickly constructing strategy for mathematical model based on mathematical templates in embedded gis	2010	5.425292879042458	6.1829181163441165	1239986
1239962	SE	a method to analyze high level petri nets using spin model checker	2017	5.761385856987271	6.3220430783622374	1239989
1240271	SE	debugging effort estimation using software metrics	1990	6.307515986730207	6.715616488263133	1240298
1240387	PL	interface translation and implementation filtering	1994	6.027358035088425	7.272570850082269	1240414
1241951	PL	the practice of a compositional functional programming language	2018	5.353540625943246	6.818891631961766	1241978
1242255	PL	interface definition language conversions: recursive types	1994	5.2780282753389285	7.18672022959688	1242282
1242502	SE	spma - java binary enhancement tool	2003	5.499609938715858	6.998725210726132	1242529
1243049	Theory	a file comparison program	1985	5.070557997148156	6.164259728369927	1243076
1244104	OS	fast code generation using automatically-generated decision trees	1990	5.5216063048629165	7.074185878799441	1244131
1244339	PL	regenerate: a language generator for extended regular expressions	2018	4.459505747059441	7.259434830317546	1244366
1244588	Theory	{dasasap}, an app for syllogisms	2015	4.5158303873803565	5.712806899333287	1244615
1245048	Robotics	what vs. how of visual modeling: the arrow logic of graphic notations	1999	6.075028542722173	5.883404617359303	1245075
1245093	Visualization	on history-sensitive models of interactive queues	2006	5.797935472739593	5.648834676930504	1245120
1245139	PL	target computer independent optimizaton procedure for for metacompilers	1976	5.6227677346770895	6.473707209334159	1245166
1245281	AI	language facilities for programmable backtracking	1977	4.4352550507844715	7.078993236842322	1245308
1245940	AI	a revised semantics for rule inheritance and module superimposition in atl	2011	5.788129095844108	7.3957658336814776	1245967
1246060	Robotics	constraint functional logic programming for origami construction	2003	4.910101684260953	6.03774345309929	1246087
1246788	Robotics	the rosecon system - a computer tool for modelling and analysing of processes	2005	5.417919844824857	5.631851049212741	1246815
1247091	PL	integration of declarative paradigms: benefits and challenges	1997	5.043601818468591	5.9908467268962085	1247118
1247360	PL	how to get a singleton in eiffel	2004	5.031530770438025	6.535032934109363	1247387
1248453	Logic	highly automated formal verification of arithmetic circuits	2017	5.221688855570966	5.802720818044793	1248480
1248965	PL	a modeling layer for constraint-programming libraries	2005	4.410243638979325	6.2473426259057865	1248992
1250360	PL	logicobjects: a linguistic symbiosis approach to bring the declarative power of prolog to java	2012	5.94698965221203	6.8222281736919115	1250387
1250375	PL	language design and implementation using ruby and the interpreter pattern	2008	5.347178831173821	7.385278174602734	1250402
1250409	PL	"""a alternate form of the """"uncol diagram"""""""	1961	5.701605834820619	6.474532076198548	1250436
1250884	DB	from early aspect to aspect-oriented programming: a state-based join point model approach	2018	6.1870300639146745	5.625693308552601	1250911
1252051	AI	graph transformation in a nutshell	2004	4.732469401867219	6.3481251482673935	1252078
1252274	SE	synchronous programs testing language (sptl)	2014	5.942569142997223	6.358182813603859	1252301
1252883	EDA	programming for fortran compatibility and machine independence	1973	6.1076207003866685	6.511710248611832	1252910
1252949	PL	problems of inheritance at java inner class	2013	5.095668531225126	7.4220672776575745	1252976
1252980	EDA	microdare special feature microdare: a fast, direct-executing high-level language system for small computers	1979	6.225849969212573	5.8639664796276705	1253007
1253394	PL	meta-predicate semantics	2011	5.815931004035885	7.282944701423062	1253421
1253507	PL	the role of opaque types to build abstractions	1988	4.857936763261916	7.158944374009455	1253534
1254687	DB	event driven objects	2001	4.778510919701815	6.645701935405053	1254714
1254976	Logic	invited talk: practical use of formal verification - where are we? where do we go?	1999	5.762720555671438	5.760474352364384	1255003
1255338	PL	social processes and proofs of theorems and programs	1979	5.0705488486222245	7.231284723526791	1255365
1255589	PL	programming with explicit metaclasses in smalltalk-80	1989	5.221837131243345	7.172815819694196	1255616
1255608	HCI	systematic output modification in a 2d user interface toolkit	1997	6.268682173964281	7.127549251433092	1255635
1255794	EDA	true concurrent equivalences in time petri nets	2016	4.933923423920214	5.692480427053301	1255821
1256122	Theory	automatic construction of special purpose programs	1982	4.7862727934829286	6.195334166591411	1256149
1256392	OS	spelling correction in systems programs	1970	5.663372491190763	6.573932832959662	1256419
1256595	Robotics	lambda in motion: controlling robots with haskell	1999	6.262817928872968	6.828726749250129	1256622
1257119	HPC	debugging methods in recursive structured fortran	1980	4.962076657205338	6.897839877725271	1257146
1258359	Robotics	programming language concepts for multimedia application development	2006	5.785771096036812	6.555495961267276	1258386
1258382	DB	object normalization as the contribution to the area of formal methods of object-oriented database design	2006	5.3651444675275615	5.804929389115351	1258409
1258497	AI	graphical debugging with the transparent prolog machine (tpm)	1987	6.087030541045108	6.4707676338424385	1258524
1259773	ECom	proveeasy: helping people learn to do proofs	2000	4.786267098829951	6.232573740761928	1259800
1260470	PL	lessons learned about one-way, dataflow constraints in the garnet and amulet graphical toolkits	2001	6.040477013832643	6.912496379250371	1260497
1260688	Theory	algorithms and object-oriented programming: bridging the gap	2002	5.148722227997559	5.799893687956398	1260715
1260786	Logic	concrete vs. symbolic simulation to assess cyber-resilience of control systems.	2018	5.548510130094211	5.6523956675195715	1260813
1260854	SE	opium - a high-level debugging environment	1992	5.167885385878909	7.254967432509044	1260881
1261044	PL	montages specifications of realistic programming languages	1997	5.545061426811272	7.180677493017385	1261071
1261257	HPC	a’um —a stream-based concurrent object-oriented language—	1988	4.638930499595733	6.7227431792576215	1261284
1261365	PL	optional, repeatable, and varying type parameters	1982	4.890630355133896	7.042254336971591	1261392
1261552	PL	software development for the working actuary	2013	5.507528995850503	6.399866528163513	1261579
1261856	Graphics	computer simulation - discussion of the technique and comparison of languages	1966	6.235174790191706	5.889986933781526	1261883
1262056	Robotics	a survey and comparison of petri net-based deadlock prevention policies for flexible manufacturing systems	2008	5.34815309038866	5.716272812490227	1262083
1262285	PL	towards an automatic parametric wcet analysis	2008	5.141786217485973	6.132047632898322	1262312
1263125	AI	wizarg: visual argumentation framework solving wizard	2010	4.468726119183347	5.9384602440482155	1263152
1263657	Logic	sequential control logic inferring method from observed plant i/o data	1999	5.207885925599361	5.668189131091732	1263684
1263974	NLP	inheritance as an incremental modification mechanism or what like is and isn't like	1988	4.861405719787111	7.350963811053468	1264001
1264358	PL	a systematic approach to language constructs for concurrent programs	1984	5.517566180892483	7.2739597190003575	1264385
1264545	PL	notes on the implementation of fam	2016	4.5040181478506796	5.920042676659177	1264572
1265386	NLP	lexical analysis	1976	5.838250884882468	6.092931853639555	1265413
1265561	EDA	prism 2.0: a tool for probabilistic model checking	2004	6.169336106509073	6.4712092852282534	1265588
1265716	PL	programming for engineers: a foundational approach to learning c and matlab	2011	4.901026756085328	6.480561985271003	1265743
1266008	PL	toward semantic foundations for program editors	2017	5.857709007477894	6.636027649764374	1266035
1266397	AI	functional programming languages for ai problem solving	1991	4.95990362313764	6.373073970659058	1266424
1266901	Logic	an arbitrary precision real arithmetic package in reduce	1979	5.1277848372270585	6.669432816818544	1266928
1267752	Logic	a prototype of a descriptive type system for xcerpt	2006	4.608878860706475	6.375111939245527	1267779
1268483	Logic	design of the lotosphere symbolic lotos simulator	1990	6.144384901502222	6.98662142547186	1268510
1268947	DB	unifying programming languages and databases: scoping, metadata, and process communication	1991	4.526600382678907	6.916878742138671	1268974
1269200	AI	an empirical study into cobol type inferencing	2001	5.887685043997113	7.281846262296907	1269227
1269686	PL	semantics driven disambiguation: a comparison of different approaches	2009	5.200311631666456	7.255981004106518	1269713
1269759	DB	data base sublanguage founded on the relational calculus	1971	4.535659945857278	6.335922422609477	1269786
1269851	PL	logic programming with arrays	1991	4.571635789947692	6.731643149636702	1269878
1271561	PL	optimization of parser tables for portable compilers	1984	4.961689211473376	6.9968803825073165	1271588
1271578	EDA	automated generation of diagrams with maple and java	2003	4.698183115281194	6.024530863197953	1271605
1271651	Logic	hoares communicating sequential processes: erweiterung des spurenmodells	1985	5.0255436181431214	5.560652382822455	1271678
1271755	Theory	collections of variables	1983	5.541679082392669	5.963741240432637	1271782
1271956	NLP	pipeline decomposition of speech decoders and their implementation based on delayed evaluation	2012	5.552015372883423	6.1228040445262275	1271983
1272095	PL	programming systems and languages 1965-1975	1972	6.18497435987755	6.654065154914945	1272122
1273329	Logic	quantum programming languages: survey and bibliography	2006	4.440930476082693	6.257849611228219	1273356
1275007	Embedded	exploration of the dendritic cell algorithm using the duration calculus	2009	4.797825936633032	6.6120765689219105	1275034
1275766	Logic	behind banana: design and implementation of a tool for nesting analysis of mobile ambients	2004	5.994790808408192	6.643321905703168	1275793
1276834	Arch	multilevel exit and cycle aren't so bad	1987	4.528126740268171	6.836369050617253	1276861
1276958	Graphics	moving structures between smalltalk images	1986	5.649904982744491	6.533809567115338	1276985
1277691	SE	euler diagram transformations	2009	5.440087741323512	5.6247797395830705	1277718
1277753	PL	backtracking in a generalized control setting	1979	4.487640745780491	7.181687521987832	1277780
1278387	PL	plcc: a programming language compiler compiler	2014	5.554142661579872	6.753604175749331	1278414
1279833	Robotics	improvements for the djinn api to a geometric modelling kernel	2000	5.999284170042705	6.452499386877079	1279860
1279888	ML	"""letters to the editor: on """"execute"""" and """"repeat"""" instructions"""	1965	5.393549565667838	6.383410109744986	1279915
1280600	PL	semantics and algorithms for data-dependent grammars	2010	4.4397901110552125	7.0655558528755655	1280627
1280690	AI	event handling in prolog	1989	5.692056504486714	6.562113774094965	1280717
1281458	SE	towards probabilistic program slicing	2005	5.043853203524835	7.193698232717318	1281485
1281461	Embedded	transputer link break-out box	1987	5.821618127112372	6.043024629715978	1281488
1282322	PL	experiments on speculative evaluation in a functional programming language	1999	5.1223391511187595	5.579998597404833	1282349
1282802	AI	the formal definition of human/machine communications	1978	6.125757130215349	6.380184621906363	1282829
1282909	PL	an in – core batching standard fortran complier for large icl 1900 machines	1975	5.791677054122096	6.553210837703034	1282936
1283018	DB	type safe programming of xml-based applications.	2004	5.2797150378443805	7.080104445636848	1283045
1284151	PL	syntax error repair for a java-based parser generator	2005	5.291931259838792	5.9062687624366665	1284178
1285283	Robotics	an overview of the arjuna distributed programming system	1991	6.2381900066969695	5.838833841710768	1285310
1285430	SE	observations of fallibility in applications of modern programming methodologies	1976	5.4362593305674185	7.153689393682822	1285457
1285825	PL	knowledge abstraction	1987	5.52815174794672	5.902850285630069	1285852
1286108	HCI	the philips computer pascal	1961	5.3128846459292856	6.7295698518835305	1286135
1286111	PL	extending stl maps using lbsts	2005	5.254855836176178	6.653218398867789	1286138
1286535	DB	ensuring high performance in validating xml parser	2007	4.9587077456585	6.1965255584435575	1286562
1287021	PL	sample: new programming technology and ai language	1992	5.150863941344551	6.495766508928544	1287048
1288616	PL	pl/i for os/2	1996	5.160467002394079	7.171299805949566	1288643
1289213	Theory	dynamic state machines with multiway synchronization, channels and shared variables	1993	5.132520535592142	5.609294980482731	1289240
1289513	AI	casting of the wam as an eam	2010	4.74189599649276	6.338579897783662	1289540
1289610	AI	a method toward design intelligence modeling	1989	4.925506568199413	6.423782304164307	1289637
1290404	Theory	it is time to emphasize arraylists over arrays in java-based first programming courses	2004	5.829279933776285	6.505151093406571	1290431
1290832	PL	generating lr syntax error messages from examples	2003	4.9072275701224335	6.78455157416117	1290859
1291328	SE	problem specification and program synthesis in the system spora	1990	5.297670024615283	6.8987614759136155	1291355
1291509	PL	the liveness property of on-the-fly garbage collector - a proof	1983	4.949144786628506	5.8551333029400805	1291536
1292098	Robotics	formal specification and simulation of the robot path planner	2009	6.01473306473576	6.108037075799191	1292125
1292131	EDA	the syntax of programming languages-a survey	1964	4.410707773453487	6.397408593817325	1292158
1292404	SE	an experimental comparison of time sharing and batch processing	1967	5.897051478391387	6.142003856882077	1292431
1294604	PL	higher-order functions for parsing	1992	4.788426457930797	6.4842633473912406	1294631
1294970	PL	implementation of an apl-based spreadsheet manager	1987	6.219041066126803	6.28344514940253	1294997
1295305	PL	symple, an icon-based computer language	1988	5.043485604610926	6.537536979342373	1295332
1296222	HPC	apdcm introduction and committees	2015	4.609878499032368	6.0878075934980895	1296249
1296497	PL	hierarchical modularity	1999	5.631847032888124	6.914520651269346	1296524
1296772	AI	towards a framework for multidirectional model transformations	2014	4.462969207318781	6.489854992674968	1296799
1297184	PL	the share 709 system: supervisory control	1959	5.28697395268419	6.869230264539831	1297211
1297884	PL	from obj to maude and beyond	2006	4.547894621470422	7.389438682670624	1297911
1298766	Logic	automated verification of equivalence of protocol machines	1989	4.7474642704331815	5.534600058186563	1298793
1298848	PL	implementing metcast in scheme	2005	5.670157211036044	6.500524773038694	1298875
1299422	PL	using overloading to express distinctions between evaluators	1993	4.6349837708711	6.881600577438261	1299449
1299433	HCI	generic tasks in kew	1993	4.402401904245762	5.609209505008191	1299460
1299959	Robotics	incremental computation: the preliminary design of a programming system which allows for incremental data assimilation in open-ended man-computer information systems	1967	5.513277115089879	6.434724171230833	1299986
1300044	Robotics	a system to automate the generation of program variants for industrial robot applications	2002	6.079610239057964	7.21286694751432	1300071
1300454	OS	nail: a practical tool for parsing and generating data formats	2014	5.145746888575643	7.01207455020432	1300481
1300758	Logic	multiparty session types for dynamic verification of distributed systems	2016	5.218590951416002	5.8047100476099285	1300785
1300881	Arch	deeply nested if-then-else's	1983	4.811186571623702	6.358040605296	1300908
1301049	PL	"""comments on """"structured programming in a production programming environment''"""	1976	5.213974721884241	6.568996729319498	1301076
1301328	HCI	a pre-processor using rule mask techniques for extended entry decision tables	1973	4.929320692928398	5.594842877162289	1301355
1301748	PL	efficient incremental lr parsing for syntax-directed editors	1988	4.567591707962257	6.716871032101912	1301775
1301996	Logic	a temporal logic framework for a layered approach to systems specification and verification	1987	5.047633114348812	6.175927776368438	1302023
1302156	PL	a dictionary of apl	2007	5.180089823822846	6.818355372810403	1302183
1302239	Logic	constraint logic programming using eclipse	2007	6.128425112399333	5.895934530947812	1302266
1303356	EDA	on conformance test and fault resolution of protocols based on fsm model	1992	6.097595658591618	5.805695303795807	1303383
1303376	PL	there is no fast lunch: an examination of the running speed of evolutionary algorithms in several languages	2015	5.029097034405752	7.129671516820142	1303403
1304832	AI	a dynamic-epistemic logic for mobile structured agents	2011	4.873809118589116	7.087209945091139	1304859
1305256	HPC	prolog for applications programming	1986	5.9196550662400425	6.3143895021343575	1305283
1305966	Logic	static analysis	1999	4.605639031870031	5.69668812062582	1305993
1306067	Web+IR	baum-welch style em approach on simple bayesian models forweb data annotation	2007	5.920601938265303	6.902790169899838	1306094
1306299	AI	very-high-level programming of knowledge representation schemes	1984	5.625559748254695	5.8998531702928245	1306326
1306644	PL	a c++ tutorial	1985	5.309055848856507	6.975700333243888	1306671
1307907	Logic	deadlock properties in discrete simulation systems	1994	4.964402264176765	6.2169782905578135	1307934
1308760	PL	asynchronous proof processing with isabelle/scala and isabelle/jedit	2012	5.574537453163943	6.806766985717669	1308787
1309079	PL	indirect object representation and access by means of concepts	2006	6.104158091374549	6.892974147670003	1309106
1309238	PL	preventing injection attacks with syntax embeddings	2010	5.508359796506247	7.447967732688197	1309265
1309472	Theory	processing context-sensing picture grammars on a network	2001	4.936001589363407	6.202371368864792	1309499
1309868	PL	standard ml of new jersey	1991	5.486705943464124	7.0610709537978975	1309895
1310595	Graphics	alltypes in the web	2008	4.5164223653421365	6.1588817614034665	1310622
1310672	PL	object oriented programming (tutorial)	1990	5.058876821761204	6.6178636957932655	1310699
1310977	PL	tools for automatic compiler generation (panel discussion)	1978	5.6012902231349715	6.917985625140688	1311004
1311229	HCI	dalek: a gnu, improved programmable debugger	1990	6.117889482470537	5.826598142058924	1311256
1311966	AI	ccgolog -- a logical language dealing with continuous change	2003	5.745306535218514	7.412286682622192	1311993
1312437	PL	yet another conversational programming language - bpl	1978	5.83166631404418	6.620753601868616	1312464
1312631	DB	proving correctness of programs with io - a paradigm comparison	2001	4.3749593341309305	6.874202260421035	1312658
1314783	PL	resource-based web applications	2006	5.101466289494879	7.11954432735349	1314810
1314842	PL	compilation principle of a specification language dedicated to signal processing	2001	4.963345845313803	6.538918062043419	1314869
1315371	NLP	inrstêx: a document preparation system for multiple languages	1986	5.157798426309619	6.225202166369991	1315398
1315874	Arch	the architecture of an algol 60 computer implemented with distributed processors	1977	5.483497933035473	7.300535378190503	1315901
1316191	AI	constraint satisfaction with an object-oriented knowledge representation language	1994	5.325338669037448	6.052782447382902	1316218
1316458	PL	nickle: language principles and pragmatics	2001	5.862855302506291	6.526668759218142	1316485
1316705	PL	xmg - an expressive formalism for describing tree-based grammars	2006	4.967784260925665	6.294816238920737	1316732
1317820	AI	separating shape graphs	2010	4.890557071629285	6.796866089844137	1317847
1318035	SE	architectural unification	1997	6.216634982278228	7.257408148362074	1318062
1318052	AI	hardware diagnosis as program debugging	1987	4.418535156646098	7.229156110909293	1318079
1318139	PL	using the general intensional programming system (gipsy) for evaluation of higher-order intensional logic (hoil) expressions	2010	4.4623913303510605	7.2041527156625484	1318166
1318321	PL	stimulus response machines: an ada-based graphic formalism for describing class and object behavior	1992	4.8300342074619484	6.656442465523815	1318348
1318757	SE	orthogonality of concerns in module closure	1985	5.575410888818066	6.935012687346156	1318784
1318925	Arch	microprogramming concepts - a step towards structured hardware design	1974	5.6921674888294875	6.514435589949584	1318952
1319353	Logic	scarab: a rapid prototyping tool for sat-based constraint programming systems	2013	4.862919121345256	5.7914837723446295	1319380
1319448	Crypto	problems encountered in the machine-assisted proof of hardware	1995	4.406299182193365	6.351349246098702	1319475
1319458	AI	version space algebra and its application to programming by demonstration	2000	4.78657993976793	5.658055970207643	1319485
1319695	Crypto	an isabelle/hol formalization of the modular assembly kit for security properties	2018	5.71766054729486	6.418602908273625	1319722
1319702	PL	parser combinators for context-free path querying	2018	5.242292288034141	7.000763567642182	1319729
1320684	PL	why c++ is not just an object-oriented programming language	1995	5.964114021000737	6.722698340025259	1320711
1321077	Logic	owl: a library for \omega -words, automata, and ltl	2018	5.010506651156824	6.918636004836238	1321104
1321236	PL	implementing semantics of object oriented languages using attribute grammars	1991	6.099990202496401	7.1308619646411575	1321263
1321567	PL	loop constructs - a design for fortran	1979	6.075552206999219	6.607723320293663	1321594
1321748	Logic	an approach to the formal verification of the three-principal security protocols.	2005	5.687474715906672	5.95762311827899	1321775
1322320	PL	a functional description of tex's formula layout	1997	4.408242377461197	6.904231369780951	1322347
1322534	DB	jmathnorm: a database normalization tool using mathematica	2007	6.1151224738466015	5.890859220931658	1322561
1322883	Logic	a closer look at export and import statements	1986	5.380482265612224	6.282014215416927	1322910
1323970	PL	concrete semantics of programs with non-deterministic and random inputs	2012	4.537842685868167	6.219713898639211	1323997
1324057	PL	translation of nested pascal routines to c	1990	4.96359996379134	6.775092250885043	1324084
1324225	SE	petri net based verification of distributed algorithms: an example	1997	5.353588724551597	6.0939347579991034	1324252
1324280	Logic	an approach to model checking atlir	2016	4.978424462458412	5.535703207105506	1324307
1324322	PL	can partial correctness assertions specify programming language semantics?	1979	4.489518737885353	6.642666025320407	1324349
1325315	Logic	modelling logistic systems with exspect	1990	6.30664281868854	7.163743667897399	1325342
1325472	NLP	code generator generation based on template-driven target term rewriting	1987	4.572201593811525	7.115138500980589	1325499
1326385	HPC	using pascal in a fortran environment	1977	5.70793079775628	6.493704528317777	1326412
1328243	PL	a simscript-fortran case study	1967	6.207426752688495	6.299051719168459	1328270
1328360	Logic	formal verification of modern sat solvers	2008	5.310002484891847	5.6710284798678074	1328387
1328413	AI	autopass: an automatic programming system for computer controlled mechanical assembly	1977	6.1203353960699465	6.1023404762393225	1328440
1328638	PL	ooerlang: another object oriented extension to erlang	2012	5.8546931735079655	7.386343796253655	1328665
1328697	Arch	programming-language-oriented instruction streams	1968	6.092735406809478	6.155811987032857	1328724
1328832	SE	profiling under unix by patching	1987	5.897212443137032	6.820894341685827	1328859
1329187	PL	modelling of space-efficient one-pass translation using attribute grammars	1983	4.608264122874447	6.743945860357517	1329214
1329268	PL	data abstraction, structured programming, and the practicing programmer	1981	6.015327407354629	5.650666954166512	1329295
1329462	PL	on-the-fly program modification: systems for dynamic updating	1993	5.8668548585047	6.601783311819062	1329489
1330273	HPC	reasoning about service oriented recursion	2011	5.08345287269447	6.707082638015912	1330300
1330306	EDA	parallel logic with charge storage techniques	1967	4.971382127501042	5.606183069732476	1330333
1331424	EDA	closed loop state space analysis and simulation for cognitive systems	2008	5.3094229181488135	5.914968167408548	1331451
1331584	DB	enhancing the flexibility of workflow execution by activity anticipation	2006	5.074126648027744	5.99730295737376	1331611
1332197	PL	reversible language extensions and their application in debugging	2013	5.059825767663897	7.284367556660701	1332224
1332294	Logic	specification and automatic verification of frame properties for java-like programs (specificatie en automatische verificatie van frame eigenschappen voor java-achtige programma's) ; specification and automatic verification of frame properties for java-like programs	2009	4.732012631327909	7.167290087848443	1332321
1332572	PL	the logic programming paradigm and prolog	2001	5.031819755375441	6.615906537295926	1332599
1334531	Visualization	understanding control function and failure from a process perspective	2012	6.155220879610996	5.735485862830982	1334558
1335436	PL	the performance of a system for automatic segmentation of programs within an algol compiler (gier algol)	1965	5.501014518573442	6.226943467963853	1335463
1335750	PL	some challenging typing issues in object-oriented languages	2003	5.623772505208554	7.3625659015499645	1335777
1336253	Robotics	proof of specification properties by using finite state machines and temporal logic	1987	4.712658236344613	6.289531790122656	1336280
1336735	SE	radio channel measurements and modeling for smart antenna array systems using a software radio receiver	2004	6.11628294074604	7.443193891176798	1336762
1337161	SE	automatic ada program generation from protocol specifications based on estelle and asn.1	1988	6.238580341055932	6.467551702786487	1337188
1337541	NLP	an efficient method for incremental attribute evaluation by using multi-dependency	1988	4.503665541059061	5.922697241014007	1337568
1337694	PL	some experiments on light-weight object-functional-logic programming in java with paisley	2013	5.178985091104908	5.987017831315807	1337721
1338561	PL	an overview of edison	2000	4.973369764730887	6.02123306623929	1338588
1339023	PL	a web-based tool combining different type analyses	2006	5.304646676684764	6.7709620156312775	1339050
1339255	PL	the jastadd system - modular extensible compiler construction	2007	5.605967946140591	7.441734747356304	1339282
1339553	PL	design and implementation of the l+c modeling language	2003	6.214221881025519	6.6233247203938435	1339580
1339752	Vision	specification and transformation. methodology aspects of the vienna development method - towards a meaning of 'm' in vdm	1989	6.05458318365857	5.8807808486686906	1339779
1339874	Arch	approaches to code generation for synchronous transfer architecture (sta)	2008	5.275059954324496	5.724803610510204	1339901
1340156	PL	unifying genericity - combining the benefits of virtual types and parameterized classes	1999	4.83180282115025	7.177700574713801	1340183
1340427	PL	program compression	2006	4.672277179588176	6.992531598106886	1340454
1340574	PL	miko - mikado koncurrent objects	2005	4.762311618759504	7.387972643062199	1340601
1341603	DB	specification-based approach for denotational semantic of orthogonal object/relational dbms	2014	4.840504438938715	7.203441192536262	1341630
1342676	Security	a general definition of malware	2009	5.5109346455929895	6.913647555697914	1342703
1342729	Theory	an expert system for implementing abstract sorting algorithms on parameterized abstract data types	1981	4.789718135219268	6.5939816569625425	1342756
1342860	PL	haskell 98 libraries: maybe utilities	2003	5.270346619250924	5.574740006733334	1342887
1343194	Vision	tigenerator: object-based training image generator	2008	5.560933971855695	5.55992911494242	1343221
1343983	HPC	on the automatic configuration of application-oriented operating systems	2005	6.280856623937521	6.125578226040397	1344010
1344890	Crypto	ledger design language: towards formal reasoning and implementation for public ledgers	2018	6.2522463096844945	5.939566835818804	1344917
1345372	HPC	developing parallel programs in a graph-based environment	1993	6.285366013309835	7.36829646644542	1345399
1345600	PL	lisp: introduction to the special section	1991	5.869915786159072	6.5897038819243265	1345627
1347214	DB	refinements of complexity results on type consistency for object-oriented databases	2001	5.557279079526058	6.137763426923742	1347241
1347933	PL	a portable syntactic error recovery scheme for lr(1) parsers	1985	5.110206005598077	7.114532859251066	1347960
1348947	PL	dependent types in haskell: theory and practice	2015	4.754654193923249	6.850034107725526	1348974
1349109	AI	arrows, robots, and functional reactive programming	2002	4.827014277010312	6.724649143662057	1349136
1349897	SE	expressing program requirements using refinement lattices	1994	5.286918227080238	6.63370549615155	1349924
1350412	AI	adaptive data stores	1988	5.620962239834328	7.174903035436983	1350439
1350507	PL	nested scopes in pascal and algol 68	1983	4.504469551981093	6.399069428708542	1350534
1350650	SE	a fortran ii load-time saver	1964	5.48360026449399	6.776837961487209	1350677
1350665	PL	thor: a tool for reasoning about shape and arithmetic	2008	5.340103051781452	7.305496412608888	1350692
1350696	Logic	refinement type checking via assertion checking	2015	4.814569361320529	6.8346869825638175	1350723
1350785	SE	a pattern matching system	1982	5.656567698816343	6.474358333147366	1350812
1350862	DB	an interactive graphical manipulation system for higher order objects based on relational algebra	1986	4.746404003904887	6.354643871877299	1350889
1351805	SE	on time-stressed team collaboration	2009	6.237251506730473	5.9756059163167325	1351832
1351896	PL	an efficient system for user extendible languages	1968	5.2429661520750885	6.670419206107294	1351923
1353447	PL	symbolic execution and program testing	1976	4.56358849886397	7.427999380627973	1353474
1353493	AI	comments on the alcor group represenatation of of algol symbols	1964	4.780290120806323	6.2950693552220525	1353520
1353688	PL	verification of software barriers	2012	5.935023119999852	5.795938556242017	1353715
1353802	Arch	paging strategy for prolog based dynamic virtual memory	1986	5.032792884201584	5.617570554184622	1353829
1353920	AI	a comparison of lisp, prolog, and ada programming productivity an ai areas	1985	6.249247580778174	6.73657666372251	1353947
1354994	PL	a superposition operator for the refinement of algebraic models	2000	6.201059472802616	7.3788783091806245	1355021
1355237	HPC	benchmark semantics	1991	4.887577344518776	7.049118513938513	1355264
1355352	SE	petri nets for the control of discrete event systems	2014	5.269074986808361	6.167804055328075	1355379
1355824	AI	towards a calculus for dynamic architectures	2017	4.945763204631882	5.8069130968934095	1355851
1356442	Graphics	a formalization for the specification and systematic generation of computer graphics systems	1986	5.936108261102984	6.618967594388974	1356469
1356886	Logic	further developments in assembly programs	1983	4.867215294723047	6.387238312003047	1356913
1357080	PL	chemical symbol string parser	1983	4.723395983790264	6.285597938727385	1357107
1358300	PL	inheriting multiple and repeated parts in timor	2004	4.677649757658271	5.991769165221827	1358327
1358838	HCI	a prototype of a knowledge-based programming environment	2011	6.272016029823532	5.628476043217906	1358865
1359100	NLP	unsupervised grammar inference using the minimum description length principle	2012	6.011918291182772	6.336175333818639	1359127
1359784	AI	generic programming: an introduction	1998	4.941416533403533	6.26657873130076	1359811
1359878	AI	novel approach to a rule-based general purpose program translator using paramodulation	1988	4.6130984013673375	6.439123378754593	1359905
1359893	EDA	behavioural approach to osi system design	1988	6.136054782285631	6.057680729469606	1359920
1360510	SE	"""erratum: """"contemporary concepts of microprogramming and emulation"""""""	1970	5.5783920343572975	6.637347456521876	1360537
1362136	SE	the evolution of job control languages	1972	5.568374532686093	6.318127008248919	1362163
1363130	SE	experiences with writing library software for an attached processor	1985	5.7004779275945205	6.4269267415920694	1363157
1363582	PL	repairing syntax errors in lr parsers	2002	4.843976662739236	6.261425563204631	1363609
1364293	NLP	a survey on modeling issues using the machine description language lisa	2001	6.17867115490333	5.74884923156547	1364320
1364550	EDA	a set of tools for vhdl design	1991	6.281313626811032	6.699611964781577	1364577
1364775	Embedded	high performance simulations of kernel p systems	2014	5.2165652120530295	6.0521338649950325	1364802
1365369	PL	data abstraction and hiding in fortran	1981	5.4891380745032405	6.983904260427523	1365396
1365406	EDA	the programming language pascal	1979	5.562795732466934	6.616434099291077	1365433
1365904	AI	the backward-directed go to in fortran	1984	5.243097276254584	6.197339330598596	1365931
1366448	PL	use of magnetic tape for data storage in the oracle-algol translator	1961	4.869551021949919	6.479612844121026	1366475
1366554	AI	exploiting block deordering for improving planners efficiency	2015	5.179583047206487	6.193804028857665	1366581
1366555	PL	a standard syntactic metalanguage	1982	4.582286413197894	6.295764908824804	1366582
1366892	SE	development of an atomic-broadcast protocol using lotos	1999	5.606045564678081	5.773020659344108	1366919
1367040	Robotics	translating robot programming language flow control into petri nets	2011	6.02980321103194	6.609131774137695	1367067
1367224	PL	a constructive approach to language definition	2005	5.8252872557088615	7.343427332128713	1367251
1367253	Logic	issues on deterministic transformation of logic-based program specification	1990	4.553079461210176	7.431990430502617	1367280
1368150	PL	declaration and addressing of varying density arrays and structure	1974	4.635193674465887	6.552168881058526	1368177
1368638	PL	ispmet: a study in automatic emulator generation	1972	5.664921313656768	6.660904268476597	1368665
1369048	DB	query processing and optimization using compiler tools	2010	5.410019025818264	6.312183781523764	1369075
1369601	SE	a perspective on the evolution of live programming	2013	6.229376854840888	6.976081087371117	1369628
1369613	PL	optimizing program placement in virtual systems	1974	6.066281967263109	5.941399641507317	1369640
1369726	DB	an architecture for processing graph-grammar applications	1987	5.408474189182792	6.716702618739033	1369753
1370578	HCI	a depth-first and tool-supportable programming strategy	1987	5.793109809509131	6.8262171737338795	1370605
1371213	PL	the craft of software testing: subsystem testing including object-based and object-oriented testing	1994	6.300462477623265	6.520709588715607	1371240
1371496	PL	full functional programming in a declarative ada dialect	1992	5.47456952676017	6.949664533867624	1371523
1372211	PL	haskell server pages through dynamic loading	2005	5.692210549812673	6.786268795158807	1372238
1372321	Robotics	algorithm simplification through object orientation	1997	6.273714186169849	6.584681779914403	1372348
1372324	SE	tutorial: concurrency with alice 3 and java	2015	6.184886661867733	7.4223375661571325	1372351
1373225	PL	three phase simulation in java	1998	6.182876110792125	7.242228877356467	1373252
1373309	SE	evaluation of a state-based model of feature interactions	1997	6.170893667105679	5.701245934345515	1373336
1373475	PL	re-engineering loops	1996	4.494237390820526	7.448510061050495	1373502
1373990	ECom	why ever csp?	2006	4.4226642004033385	6.6416883797442425	1374017
1374013	ML	"""practices for formal models as documents: evolution of vdm application to """"mobile felica"""" ic chip firmware"""	2015	6.140797459120197	6.066602867058361	1374040
1374248	PL	type theories and object-oriented programming	1988	5.4611817313928865	7.1137790612154115	1374275
1374379	PL	stratego: a programming language for program manipulation	2006	5.992740186832403	6.695949189225497	1374406
1374951	HPC	declarative languages for advanced information technologies	1988	5.619174688225362	6.433094643168863	1374978
1375236	PL	aspects of implementation of a functional programming language using combinators	1987	4.940885884919074	5.625676279373839	1375263
1375550	PL	data abstraction in prolog/kr	1983	5.380210968906313	6.9939684905484745	1375577
1376048	PL	truly visual polymorphic algebraic data structures through maramafication	2018	5.262816572494854	6.981068055297508	1376075
1376061	Arch	microprogramming: a step of a top-down design methodology	1974	5.886920736035844	6.7943951691543125	1376088
1376768	PL	metalexer: a modular lexical specification language	2011	5.918181866512487	7.196397711696286	1376795
1376969	PL	extended pascal - numerical features	1989	5.4378137997681835	6.529576941208194	1376996
1377056	SE	code parallelization through sequential code search	2016	5.613874717682437	5.995553233826593	1377083
1377072	Robotics	a concurrent programming language cable and its visualization facility	1991	5.666090901421981	6.003013497134884	1377099
1377534	PL	pigs from sausages? reengineering from assembler to c via fermat transformations	2004	6.3055566809957995	6.509410605656165	1377561
1377535	DB	on the design and implementation of a geometric-object-oriented language	2007	4.663454596157656	6.272674241154673	1377562
1377706	PL	a simple taxonomy for distributed mutual exclusion algorithms	1991	5.472249625529941	5.8740390125160005	1377733
1378216	DB	challenges and trends in probabilistic programming (dagstuhl seminar 15181)	2015	6.242333695435888	7.158142978535364	1378243
1378370	HCI	procedures and modules in fortran 90	1996	5.652367698284865	6.925628682390414	1378397
1378645	ML	a parallel finite state machine implementation of a nearest-eight hoshen-kopelman adaptation for landscape analysis	2007	5.562951809073569	5.856006717991532	1378672
1378715	PL	inferring type rules for syntactic sugar	2018	5.111598102307181	6.185461503968539	1378742
1378736	Theory	from algorithms to working programs on the use of program checking in leda	1998	5.576728062177139	6.194187488242148	1378763
1378775	Theory	solving two problems in general topology via types	2004	5.090733650317835	5.914387948467438	1378802
1379368	HPC	fortran 90 arrays	1991	6.19370906040264	6.553781925338838	1379395
1380550	EDA	exploring, modelling and controlling discrete sequential environments	1977	6.241508372969727	5.67012100559366	1380577
1382170	HPC	a data identi .cation scheme for automatic relative debugging	2004	5.807140361132345	6.195520572046707	1382197
1382540	AI	linear-invariant generation for probabilistic programs: - automated support for proof-based methods	2010	6.0288307707934345	6.313858561761742	1382567
1382649	NLP	a temporal graph grammar formalism	2018	5.341491212190924	6.816627489770241	1382676
1382766	SE	a practical glr parser generator for software reverse engineering	2014	5.337329248847071	6.521613494020476	1382793
1382924	PL	scannerless nslr(1) parsing of programming languages	1989	4.909698938919019	6.430757483224668	1382951
1383040	PL	proofpeer - a cloud-based interactive theorem proving system	2012	4.431700211724318	7.1976117404272175	1383067
1383525	SE	lyrebird - assigning meanings to machines	2010	5.487566397354429	6.918532537555019	1383552
1383602	Vision	paisley: pattern matching à la carte	2012	5.540508874494122	7.285017651325528	1383629
1384432	SE	applying ooad in the design and implementation of an intelligent geographic information system	1993	6.202901732066084	6.510761270045908	1384459
1385803	PL	generation of compiler symbol processing mechanisms	1983	5.455761464951976	6.781635103975037	1385830
1385809	PL	a new look to pattern matching in abstract data types	1996	4.800662948638982	6.986327807195182	1385836
1385989	PL	a new definition of the subtype relation	1993	4.784131922473613	7.230097913403605	1386016
1386149	ML	programmable reinforcement learning agents	2000	4.457982384193434	6.711063041284643	1386176
1386384	Embedded	designing and modeling cyberworlds using the incrementally modular abstraction hierarchy based on homotopy theory	2010	6.133143170526557	7.382025492340193	1386411
1386486	PL	the elegant compiler generator system	1990	4.996521386370166	6.97232723000519	1386513
1386988	EDA	common lisp object system specification: 1. programmer interface concepts	1989	6.173306905649357	6.135576761983683	1387015
1387128	Visualization	specializing visualization algorithms	2003	5.9791272580523245	5.904804770426482	1387155
1387237	Theory	execution tracing of c code for formal analysis (extended abstract)	2015	4.696116337025459	5.698266961830252	1387264
1387460	Robotics	literate mathematical development of a revision management system	1994	5.299744917246032	6.865252564512973	1387487
1387465	EDA	validation of recursive logic in graphic design	2016	5.985081936666279	5.6505229388237135	1387492
1387916	PL	recycling proof patterns in coq: case studies	2014	6.01978268131248	5.991580226229413	1387943
1387942	NLP	strings and the sequence abstraction in pascal	1979	4.8902640332738665	6.848727015942528	1387969
1388402	PL	some effects of the 6600 computer on language structures	1964	4.822724340344526	6.959347588059042	1388429
1388512	PL	interpretive language implementation from a layered operational model	1993	5.528178944953403	6.968701194183336	1388539
1388969	PL	visualizing partial evaluation	1998	5.467178180689667	6.545686966427188	1388996
1389160	AI	implementing reactive bdi agents with user-given constraints and objectives	2010	5.873342852399392	7.025020058033778	1389187
1389634	PL	linguist-86: yet another translator writing system based on attribute grammars	1982	5.550601235620466	6.464006826416044	1389661
1389679	OS	a note on the use of a digital computer for doing tedious algebra and programmming	1965	4.682219646119552	6.161781723403887	1389706
1390111	PL	an introduction to the beetle forth virtual processor	1997	5.750937487638876	7.085232771012879	1390138
1390374	PL	monads for incremental computing	2002	4.431721908502399	7.401169507841088	1390401
1390635	SE	recombining changes to software specifications	1996	5.054637061189212	7.2831768222756175	1390662
1390686	PL	the gamma model as a functional programming tool	1990	5.380722749113752	7.094976514603897	1390713
1391014	PL	implementation of language enhancements	1981	5.191757261445568	7.370673247205072	1391041
1392655	Crypto	in defense of simplicity of comment syntax	1984	5.5711667101235856	5.715156635374779	1392682
1394246	PL	rust for functional programmers	2014	5.677760401691676	7.382173767677964	1394273
1394580	HPC	simulation of stochastic blockchain models	2018	5.779872891935182	6.013039635168773	1394607
1394815	Logic	integration of semantical verification conditions in a specification language definition	1991	5.4749240948212385	6.196847717151973	1394842
1395033	NLP	compilers - some good, some bad!	1985	5.7916200378581095	5.803888190002075	1395060
1395071	PL	on using scheme to introduce prolog	2006	5.052299543465342	6.4955041636972375	1395098
1395127	PL	towards generic refactoring	2002	5.535569043313369	7.312160516847656	1395154
1395273	AI	implementation of predicate logic in apl2	1989	5.652059401800755	5.8995673425329205	1395300
1395329	PL	bíogo: a simple high-performance bioinformatics toolkit for the go language	2017	5.774443281655168	7.036827165959842	1395356
1395834	EDA	application of a syntax driver to logic equation processing and data-control card scanning	1968	5.360273805519872	6.351025681080076	1395861
1395979	HPC	the executability of object-oriented finite state machines	1998	5.860503488068411	6.149044781864853	1396006
1398360	Logic	recent advances and developments - the sneps 2.1 report	1989	5.129854192820589	5.770354452780067	1398387
1398706	DB	an overview of primo: a portable interface between prolog and relational databases	1990	6.298271850335713	6.7172800506481956	1398733
1398861	AI	heterogeneous temporal probabilistic agents	2006	4.592807696910258	5.8857750420445	1398888
1398880	SE	stream fusion for isabelle's code generator - rough diamond	2015	4.410477417380217	7.025319140944568	1398907
1398985	Logic	security algebras and formal models: using petri net theory	1989	5.684182989929317	5.947529384147973	1399012
1399007	DB	xml goes native: run-time representations for xtatic	2005	5.643421248061823	6.811184716578982	1399034
1399103	Logic	an algebraic approach for diagnosing discrete-time hybrid systems	2017	4.449783483139898	5.562399473998985	1399130
1400672	Logic	the open theory standard theory library	2011	5.998464278000385	7.281921778870152	1400699
1401148	Logic	an invitation to game semantics	2016	4.43841767961187	6.4111353440716305	1401175
1402518	AI	locating things in space and time: verification of the sumo upper-level ontology	2016	6.0383821572938325	6.025815512878735	1402545
1403294	Robotics	the dsblock model interface for exchanging model components	1995	6.144739869168781	6.907803019628018	1403321
1403766	PL	zhi# - programming language inherent support for ontologies	2009	5.691114186402345	6.7895965840237364	1403793
1404117	Logic	a string language for symbol manipulation based on algol 60	1962	4.997212412831116	6.46286445221654	1404144
1404237	DB	a functional logic database library	2005	5.417781311497634	7.084100978619894	1404264
1404361	HPC	a model for structured parallel processing in block-structured programming languages	1974	5.440236002846496	5.651467319681838	1404388
1404669	SE	designing prolog programming techniques	1993	5.95188570987126	6.191510971434688	1404696
1404709	PL	integrating program analyses with programmer productivity tools	2011	6.007929646698055	7.022641296678642	1404736
1404931	PL	from circus to jcsp	2004	4.672822334726963	7.367815175997587	1404958
1404966	NLP	variable association in snobol4	1976	5.703433275158318	6.459245852957674	1404993
1405248	PL	structured microprogramming	1974	5.42532263060263	6.466955711314745	1405275
1405291	PL	code-generation technique for large-language compilers	1970	6.045372804837908	6.653808220513643	1405318
1405985	PL	the formal description of programming languages using predicate logic	1981	4.549344620659002	5.960986244577227	1406012
1406487	PL	high-level microprogramming with apl syntax	1981	5.756267087066732	7.010886142946376	1406514
1407192	Logic	using a logical and categorical approach for the validation of fault-tolerant systems	1996	4.640697895347629	7.11353239447296	1407219
1407554	Robotics	pre-emptive versus non-pre-emptive real time scheduling in intelligent mobile robotics	2000	5.576608571691499	5.765150280047335	1407581
1407623	PL	lmntal: a language model with links and membranes	2004	4.693935227667019	5.874706868503883	1407650
1407730	OS	apl extensions - a users view	1987	6.2567401106620775	5.797250175965574	1407757
1408210	SE	program transformation using temporal logic specifications	2003	4.841921433717463	6.131630758032049	1408237
1408954	Logic	a reflective language based on conditional term rewriting	1996	5.076843964130044	6.118322355562537	1408981
1409240	PL	toward a verified relational database management system	2010	5.797065627028817	6.59684537544296	1409267
1409344	SE	c preprocessor use in numerical tools: an empirical analysis	2009	5.977480621745302	5.651655374480098	1409371
1409381	PL	the uplnc compiler: design and implementation	2004	5.873956122289196	5.618151371076896	1409408
1409469	PL	ometa: an object-oriented language for pattern matching	2007	5.4935223645588325	6.478838257549557	1409496
1409506	SE	variable precision arithmetic: a fortran 95 module	2001	5.006054532284626	6.785277120703004	1409533
1409539	PL	generalising techniques for type debugging	1999	5.434370532486438	6.350070896677652	1409566
1409818	PL	an abstract machine design for lexically scoped parallel lisp with speculative processing	1992	4.7883375363240885	7.0241795188240195	1409845
1409871	PL	metaj: an extensible environment for metaprogramming in java	2004	6.031263260052631	7.260547547617463	1409898
1410301	SE	the execution history approach to intelligent debugging	1988	6.023598398323285	6.448565166783303	1410328
1411530	Logic	program units as higher-order modules	1997	5.289209364110589	6.869115204948776	1411557
1411720	SE	formal derivation of rule-based programs	1993	5.474559949619887	6.274810939919032	1411747
1411931	Crypto	formal definition of a simple on-line teleprocessor in vdl	1974	6.209156975941482	7.15121238930552	1411958
1412052	PL	calculist: a functional language extended with imperative features	2017	6.059588282480138	7.1161169828829465	1412079
1412174	PL	consul: a parallel constraint language	1989	4.420945070176236	6.124738006503255	1412201
1412915	PL	introducing a cps style optimizer into an existing compiler	1996	5.326974014401426	7.233111246800307	1412942
1413051	Logic	precise and efficient points-to analysis via new context-sensitivity and heap abstraction	2017	4.988804738680417	5.8997099550737095	1413078
1413074	Logic	dynamic spatial logics: a tutorial survey	2008	5.593213232690488	5.694857852051947	1413101
1413861	PL	unix programming environment	1984	5.159274819264155	6.802960076076835	1413888
1414239	Arch	experience with a high level language that supports interval arithmetic	1983	5.391372782371067	5.8626099689316	1414266
1414556	DB	toward a formal theory of model integration	1995	6.2576973993072	5.986154491345548	1414583
1414586	PL	a generic abstract syntax model for embedded languages	2012	5.004295412243335	7.144801632118865	1414613
1415251	PL	adapters and binders - overcoming problems in the design and implementation of the c++-stl	2000	5.988184439191536	7.34434173644282	1415278
1415665	Logic	a mechanized program verifier	2005	4.843399374650646	7.305638782712548	1415692
1415891	Logic	performance description and analysis for distributed systems using a variant of lotos	1991	5.63952161495806	5.532828307643597	1415918
1415962	PL	towards the design of a set-based java collections framework	2010	5.644604603795336	7.0719904203455854	1415989
1417161	AI	the coroutines of hanoi	1985	4.705205050584635	5.706716301358613	1417188
1417279	PL	implementing a practical spatio-temporal composite event language	2010	4.7336552727688455	6.509653686818496	1417306
1418576	Theory	the challenge of probabilistic event b - extended abstract	2005	4.599124619143149	7.112092815247874	1418603
1418615	NLP	there is no best \beta -normalization strategy for higher-order reasoners	2015	4.421039160267802	7.383119287374316	1418642
1418624	PL	transformation development: translators from trafola to ssl and trafola-h	1993	5.9414246204343275	6.863719739122366	1418651
1418951	HPC	using parallel programming language for the performance analysis of concurrent systems	1993	5.048844607751661	5.885330848045977	1418978
1419433	PL	a survey of adaptable grammars	1990	4.461814637784618	6.328678485147117	1419460
1420198	NLP	code generation using an orthogonal model	1990	4.889752537646799	7.3853296225397935	1420225
1420600	PL	an architecture for prolog extensions	1992	5.551816652464704	7.067341581593058	1420627
1420850	Arch	the hardware-implemented high-level machine language for symbol	1971	6.219950279043883	5.891585094280635	1420877
1421301	AI	fundamental concepts in programming languages	2000	4.866194080830217	6.114776655656115	1421328
1421878	PL	macros that work	1991	4.589882139219448	7.018594335203207	1421905
1421895	Logic	integrating systems around the user: combining isabelle, maple, and qepcad in the prover's palette	2012	5.956444096856446	6.890575168608987	1421922
1422330	PL	formalization and 'literate' programming	2001	5.764666279711353	6.648954527083862	1422357
1422336	PL	comments on the algorithms of verhelst for the conversion of limited-entry decision tables to flowcharts	1974	4.526506064631298	6.319622205965477	1422363
1422397	PL	reversible computation and reversible programming languages	2010	5.1380277559252665	7.2944424032621855	1422424
1422510	PL	educational pearl: 'proof-directed debugging' revisited for a first-order version	2006	5.257017591074084	6.789826386168683	1422537
1422584	PL	proof general: a generic tool for proof development	2000	5.907566879809997	6.532366942912277	1422611
1423523	NLP	learning structural descriptions of grammar rules from examples	1979	4.4546549632180215	6.142647559085353	1423550
1424023	HPC	comparison of the optimization produced by the ibm vs-fortran compiler and the dec vax/vms fortran compiler	1986	5.665579475780464	5.677571940026053	1424050
1424224	Robotics	adoption of structure clash detection method for architectural cad system generation	2000	5.7025930826396705	6.7134773019208875	1424251
1424236	PL	an automation of jackson's structured programming	1985	6.259150701671804	6.595334010253183	1424263
1424317	EDA	soft connections: addressing the hardware-design modularity problem	2009	5.366980655323706	6.822863927544128	1424344
1424441	PL	separate compilation and the ada programming language	1984	5.926595352665905	5.730287777063787	1424468
1424664	Theory	design lessons from binary fission: a crowd sourced game for precondition discovery	2016	5.842261037344137	6.4861358841196655	1424691
1424803	Logic	alexandria: a tool for hierarchical verification	1998	5.09629433081598	6.600988504060072	1424830
1425080	PL	program analysis of optimizing compilers for record handling programs	1996	5.32602139507954	6.117627668594452	1425107
1425099	PL	an applicative control-flow graph based on huet's zipper	2006	4.393433530858072	7.0892496449979205	1425126
1425569	Metrics	statecharts and markov chains for performance evaluation: its applications and implications.	1999	5.5464900530163685	5.556073452393377	1425596
1425773	SE	letter to the editor: ``assembler-language macroprogramming: a tutorial oriented toward the ibm 360''	1970	5.6917296656296905	6.601743925472469	1425800
1425805	NLP	run-time extensible deterministic top-down parsing	1999	4.910503170393898	6.320323104753015	1425832
1425831	DB	a process-calculus analysis of concurrent operations on b-trees	2001	4.886690467989043	7.029004117380503	1425858
1426087	PL	a theory for natural modelisation and implementation of functions with variable arity	1987	4.837198439452719	6.903413882212642	1426114
1426145	EDA	vxml: vhdl hardware design representation in xml	2000	6.194252764528224	5.577182672925328	1426172
1426474	OS	implementation of a prototype generalized file translator	1975	6.215227504543617	6.174296082169608	1426501
1426550	Robotics	hybrid systems modeling of cooperative robots	2003	5.546639063375656	5.7684495979289165	1426577
1426578	PL	the beginning and development of formac (formula manipulation compiler)	1993	6.104552382085428	6.302981246188325	1426605
1427805	PL	parsing with c++ deferred expressions	1994	4.996603509387411	6.338659401965674	1427832
1427918	DB	reflection mechanisms for combining prolog databases	1991	5.261344889230641	6.219487024090943	1427945
1428261	AI	reasoning on uml class diagrams	2005	4.719025535978321	5.5879582741609335	1428288
1428579	HPC	cheap concurrent programming	1981	5.729725546358143	6.434153624415384	1428606
1428719	OS	variable-width tables with binary-search facility	1958	5.027894607274831	6.5603539126527854	1428746
1429044	NLP	knowledge representation in kernel lisp	1991	6.2309926150595425	6.5009784941406386	1429071
1430102	HPC	towards the parallel execution of rules in production system programs	1985	4.7626959273450655	5.7193762985746845	1430129
1430412	PL	an application of abstract interpretation in source level program transformation	1988	4.499479744571946	7.172085480817676	1430439
1430446	PL	algorithm 400: modified havie integration	1970	4.916939909540607	6.30647087865541	1430473
1431026	PL	a translational bnf grammar notation (tbnf)	2006	5.3097171489088	6.653764944696804	1431053
1431861	AI	languages versus packages for constraint problem solving	2003	5.8260916886794005	5.579275648540503	1431888
1431963	PL	invariant based programming: basic approach and teaching experiences	2008	4.523621933144832	7.444471551390546	1431990
1432156	HCI	expressiveness of process algebras	2008	4.383048131977121	6.3026306508401175	1432183
1432480	Embedded	cat: a customized automata toolkit	2016	5.6779178363223055	6.424922416185787	1432507
1432898	PL	using coq in specification and program extraction of hadoop mapreduce applications	2011	4.4784771197533235	5.8324072656309065	1432925
1433328	PL	a general framework for iteration-reordering loop transformations	1992	4.389467044525393	6.117282838032758	1433355
1433841	PL	flexible conflict detection and management in collaborative applications	1997	5.43032407878224	5.8354398225691115	1433868
1434248	SE	module development based on program transformation and automatic generation of the input-output relation	1982	5.406235523731923	5.967965449353191	1434275
1434780	PL	ada 9x: from abstraction-oriented to object-oriented	1993	5.853757409742778	7.345795829174828	1434807
1434861	Robotics	action-based imperative programming with yagi	2012	5.9220964777149225	6.919308895786084	1434888
1435054	SE	invariant patterns for program reasoning	2004	4.574328719808191	6.129316419727802	1435081
1436219	PL	stream fusion: from lists to streams to nothing at all	2007	4.530794504815171	6.956739879696858	1436246
1436405	Logic	structured event-b models and proofs	2010	4.9295671171404525	7.141314712452228	1436432
1437207	SE	measuring the survivability of object-oriented software	2009	5.543540763385646	5.592253026807927	1437234
1437368	PL	a data abstraction language based on microprogramming	1980	5.746525366723211	6.7618910033712485	1437395
1438401	PL	model-view-controller and object teams: a perfect match of paradigms	2003	5.66832443931145	7.440421341394146	1438428
1438403	PL	letters to the editor: b5000 cobol-61 compiler equipment configurations	1963	5.230732726953455	6.242837213760719	1438430
1438589	Arch	application of a structured lisp system to computer algebra	1987	5.5134735784896485	6.775738983299526	1438616
1438724	PL	an abstract intermediate representation in compilation systems	2003	5.985459018831325	7.326811511099549	1438751
1438938	PL	production systems: or can we do better than bnf?	1974	4.880064535157302	6.688002017043419	1438965
1439249	PL	staple, an experimental structured programming language	1976	5.563804723062249	6.892371793302822	1439276
1439359	PL	languages for computer music	2018	6.027330023967379	6.826994175721644	1439386
1439541	NLP	on the syntax, semantics, and implementation of a graph-based computational environment	1998	4.762309491255701	6.724286749108628	1439568
1441113	Logic	structuring and modularizing algebraic specifications: the pluss specification language, evolutions and perspectives	1992	5.818480036782713	7.383292211780171	1441140
1441471	SE	pattern matching and pattern-directed invocation in systems programming languages	1983	5.212562894881671	7.118546230541628	1441498
1442510	HPC	presentation abstract	1978	6.252134008040893	6.1866085076631325	1442537
1443162	PL	a parallel object-oriented language with inheritance and subtyping	1990	5.231859578812884	7.39814393455133	1443189
1443586	PL	an efficient method for checking object-oriented database schema correctness	1998	4.6718395654082565	7.145342693775276	1443613
1443678	Graphics	object-oriented and mixed programming paradigms	1996	5.551426313751287	7.24358797696995	1443705
1443962	Logic	came&l - cellular automata modeling environment & library	2004	5.60304609434722	6.912263659555428	1443989
1444151	PL	implementing incrementalization across object abstraction	2005	5.332961216387154	6.9290392042077915	1444178
1444816	PL	some global optimizations for a prolog compiler	1985	4.957083933437792	7.091769686788899	1444843
1445192	HPC	leda: a library of efficient data types and algorithms	1989	5.373862267414137	6.355319550708503	1445219
1445891	SE	petri nets approach for the analysis of mascot interprocess communications	2000	5.6306271483339065	5.6060881679103325	1445918
1445933	SE	towards a classification of visibility rules	1996	4.76174314054905	6.538708675866367	1445960
1446069	Security	augmented bnf for syntax specifications: abnf	2008	6.103124288247058	5.606754167587745	1446096
1446193	AI	sonic: system description	2004	5.3991808521645686	5.8937422052553945	1446220
1446951	SE	a c++ refactoring browser and method extraction	2006	5.940302794575857	7.441789093588509	1446978
1446997	PL	object oriented programming in apl2	1989	5.755175396311379	6.565066408110383	1447024
1447473	DB	mapping objects to persistent predicates	2017	5.682358886662071	6.87255339083781	1447500
1447981	PL	a software implemented memory manager	1984	5.970425111914485	6.612765878182207	1448008
1448736	AI	model-based computing for design and control of reconfigurable systems	2004	5.1712271454230425	6.392587232363012	1448763
1449516	PL	aspectscheme: aspects in higher-order languages	2012	5.151912383951872	6.170716754760983	1449543
1449773	AI	an efficient execution method for rule-based machine translation	1988	4.47549881780752	6.05748343706571	1449800
1449815	PL	experience with software conversion	1981	5.695008372063646	6.37776629784174	1449842
1450816	Robotics	algebraic deadlock avoidance policies for conjunctive / disjunctive resource allocation systems	2001	4.771562654202153	5.591647877807572	1450843
1451316	PL	synthesizing object-oriented and functional design to promote re-use	1998	5.379534569536502	6.9888679712217145	1451343
1451580	NLP	taming the pl/i syntax	1984	4.857320899434583	6.854862157759924	1451607
1451710	PL	well-typed islands parse faster	2012	5.613134248480699	7.409257889018511	1451737
1452799	Logic	a refinement calculus for concurrent systems with communications	1990	5.1836912247296025	5.763247432020688	1452826
1453630	DB	folon: an environment for declarative construction of logic programs	1992	5.280804915388436	7.37174931937886	1453657
1454751	PL	visputer - an occam program visualisation tool	1994	5.464347854177859	7.199927071770376	1454778
1454836	DB	a decimal floating-point specification	2001	5.039621784537141	6.6666052961835325	1454863
1455030	Theory	design of an integrated programming an operating system part ii: the assembly program and its language	1963	6.005151326026801	5.991124376808844	1455057
1455084	PL	modular natural language processing using declarative attribute grammars	2011	4.573835291776951	6.5942536259006745	1455111
1455245	PL	what's the matter with kansas lava?	2010	5.72356147976205	6.824579608893582	1455272
1455312	PL	a simple display package for polynomials and rational functions in common lisp	1991	6.055374986983094	5.882174824703172	1455339
1456059	PL	computer verified exact analysis (tutorial)	2009	5.834471842121358	6.81966436680392	1456086
1456352	Logic	expressing algorithms as concise as possible via computability logic	2014	4.42721853040416	6.9400030586607775	1456379
1456565	Vision	application of guarded fuzzy-attribute context free grammar to syntactic pattern recognition	1992	4.409819051962471	6.2232400493622535	1456592
1456584	DB	automatic construction and refinement of a class hierarchy over multi-valued data	2001	4.8481735340322825	5.6160863434073365	1456611
1456668	PL	darwin: a genetic algorithm language	2013	6.141082029216476	6.333473925581738	1456695
1456911	HCI	on the implementation issues of a parallel expert system	1992	6.103795428981018	5.7892550779255965	1456938
1457830	PL	exposing side-effects in a pl/i optimizing compiler.	1971	5.389180760436052	5.680485517282884	1457857
1457848	PL	from concrete to abstract - about teaching uml class diagrams to novice programmers	2013	5.793330134218406	7.109075783875222	1457875
1459364	PL	annotating objects for transport to other worlds	1995	5.555257642348081	6.354592257114401	1459391
1460365	PL	syntax extension using a run time model	1974	4.763524134668957	7.1886523053627265	1460392
1461241	PL	assembler-language macroprogramming: a tutorial oriented toward the ibm 360	1969	5.324685403023745	7.005615988949673	1461268
1461242	SE	abstract and concrete data types vs object capabilities	2018	5.033038301768703	7.249930519156568	1461269
1461454	PL	new type signatures for legacy fortran subroutines	1999	4.893615539146519	7.3122229571010315	1461481
1462032	SE	the tptp problem library	1994	4.712145071934796	6.309423050657916	1462059
1462568	Robotics	modeling safety-critical systems with z and petri nets	1999	6.1228673192119185	5.542807097386827	1462595
1463007	AI	statistical model checking of simulink models with plasma lab	2015	5.889409653686215	6.1946902505491375	1463034
1463197	Theory	real-time, time-shared computer project	1962	4.848029374994007	6.3813585203048815	1463224
1463556	PL	an idealized metaml: simpler, and more expressive	1999	4.632414955920547	7.315352434850718	1463583
1463795	PL	object-oriented modeling of programming paradigms	2006	6.271221423455637	7.35227103663693	1463822
1464679	PL	a higher abstraction level using first-class inheritance relations	2007	4.4683015613918755	7.1707521263170575	1464706
1464894	SE	a simula program to automate wire-wrap schedule generation	1985	6.12094758385638	6.315644866281952	1464921
1464918	Graphics	objects and spaces: the visual language of graphics	2006	4.3972540747479485	5.9987967504844555	1464945
1465195	Arch	architecture of a hardware data interpreter	1979	5.422725934880981	6.935168425743987	1465222
1465843	PL	on the denotational semantics of xml-lambda	2010	4.9565467282855415	6.581976108816371	1465870
1466131	Graphics	preliminary report-international algebraic language	1958	4.740467330367574	6.430277720691471	1466158
1466903	PL	software cognitive complexity measure based on scope of variables	2014	4.568637907988791	6.602433951747488	1466930
1468089	NLP	the chemical reaction model recent developments and prospects	2008	5.09767998041101	6.241325010435222	1468116
1468447	PL	identifying procedural structure in cobol programs	1999	4.650639443292613	7.389477610374012	1468474
1468493	PL	a categorial grammar for music and its use in automatic melody generation	2017	5.045605341091546	5.591992253270862	1468520
1472163	AI	mathematical formula recognition using graph grammar	1998	5.237603776813852	5.652889405366103	1472190
1472199	AI	generating optimal code using answer set programming	2009	4.813955312396224	6.6630072140938035	1472226
1472549	SE	analyzing the conditions of coupling existence based on program slicing and some abstract information-flow	2005	5.811899848993512	5.5438043865338	1472576
1472720	PL	evaluation of a java computer algebra system	2007	4.6685262368908935	7.192256923627012	1472747
1472869	NLP	exercises in style (alpha specifications)	2002	5.216869498529923	7.252104661285938	1472896
1473081	NLP	user-adaptable prettyprinting	1989	6.274049789162839	6.574312049971169	1473108
1473189	DB	units of measure as a data attribute	1977	5.6373264683150115	6.377785118612716	1473216
1473953	EDA	how to formally specify the java bytecode semantivs using the b method	1999	5.7319985233100335	6.623602707778051	1473980
1474484	PL	extending old compiler tools with meta-tools	2004	5.869926795286409	7.006716479168659	1474511
1474672	HCI	a simple prolog techniques editor for novice users	1991	5.91099828938505	6.166198316348433	1474699
1475270	Logic	specification and verification of real time systems in acp	1990	5.353684975174749	5.928836688573152	1475297
1475358	Visualization	automating the selection of implementation structures	1978	4.598961174769129	5.935862818363595	1475385
1475828	Theory	a programmed binary counter for the ibm type 650 calculator	1958	5.1091998744434335	6.2433673965903465	1475855
1476433	PL	assuring good style for object-oriented programs	1989	6.020972948778804	7.258085746870836	1476460
1477288	PL	solving the ttc 2011 compiler optimization task with metatools	2011	5.015382076699262	7.3524903176642304	1477315
1478259	HCI	safe query objects: statically typed objects as remotely executable queries	2005	5.712133660386229	7.064159168472765	1478286
1478943	Visualization	a fortran extension for data display	1974	5.77243165842538	6.6206965167217176	1478970
1480379	Logic	state-based analysis and uml-driven equivalence checking for c++ state machines	2010	4.902767013852446	7.334370837317715	1480406
1480412	Logic	what critical algebraic property allows operations of concurrent abstract data types to be fast? (brief announement)	1996	4.621146930623478	5.629748077932904	1480439
1480479	AI	agent-oriented integration of distributed mathematical services	1999	4.639409700226368	5.575204819779298	1480506
1480764	PL	research on domain-specific embedded languages and program generators	1998	5.092654137851688	7.024619407824897	1480791
1480907	Arch	reification without evaluation	1988	4.516741243513461	6.513788051548426	1480934
1482158	ML	comments on an example for procedure parameters	1987	4.681292288318184	6.352711454845912	1482185
1482192	DB	introducing graphics capabilities to several high-level languages	1978	6.121514675835727	6.472874605910956	1482219
1482503	Embedded	a language for describing the functions of synchronous systems	1966	5.736370905932869	6.21493400397863	1482530
1482749	Logic	graph pattern matching in progres	1994	5.212106689782333	6.670666540845787	1482776
1483218	DB	using data samples in validating data models	2012	5.967567450050518	5.800918151283574	1483245
1483593	HPC	on avoiding matrix reversals between 7090 fortran ii and 7090 fortran iv	1964	5.4070989375745295	5.736439783656116	1483620
1483788	Logic	the magica type inference engine for matlab	2003	5.734100174065473	6.58726743053478	1483815
1483849	PL	reduce 2 for cp/m	1983	5.649938633936482	6.296659582996459	1483876
1485183	DB	rule chaining in marvel: dynamic binding of parameters	1991	5.887529771991383	6.3104139517475275	1485210
1485234	Logic	algorithm design and software libraries: recent developments in the leda project	1992	5.214425461731001	6.4497568397422835	1485261
1485615	DB	a formal definition of sol	1964	5.369947883071729	6.8068141671108116	1485642
1485691	Robotics	decoupling in object orientation	2005	4.626189321309908	7.226003620137749	1485718
1486735	PL	tag-based modules in genetic programming	2011	4.490866613122775	7.125915914954634	1486762
1487061	PL	the functional dendritic cell algorithm: a formal specification with haskell	2017	5.1748072998346695	7.267756654789329	1487088
1487224	PL	uses of prolog in implementation of expert systems	1986	5.137257108879898	5.783198886958878	1487251
1487320	Theory	loide: a web-based ide for logic programming preliminary report	2018	5.2855442456574435	5.775175690433482	1487347
1488350	NLP	global context recovery: a new strategy for parser recovery from syntax errors	1979	4.68340361467994	6.342941395772028	1488377
1488623	DB	algorithm 182: nonrecursive adaptive integration	1963	5.4416965295984605	6.307769911014083	1488650
1488983	NLP	the aplusix-editor: a new kind of software for the learning of algebra	2002	4.826050450486696	5.746337507873355	1489010
1489160	NLP	concurrent, object-oriented natural language parsing: the parsetalk model	1994	6.303836113036461	7.354114766372873	1489187
1489388	AI	morphe: a constraint-based object-oriented language supporting situated knowledge.	1992	4.706762670472376	6.4215431512163805	1489415
1489410	SE	data structures with abstract data types and ada	1993	5.913827591903634	6.592702262344978	1489437
1489461	Arch	compiling programs to direct access data-flow graphs.	1990	5.537401729481987	5.609467737917122	1489488
1489572	DB	performance of a finite-state machine implementation of iterative cluster labeling on desktop and mobile computing platforms	2009	5.575138961531566	5.721290495846793	1489599
1489701	PL	structuring erlang beam control flow	2017	4.762068671555179	7.352490366500898	1489728
1490270	OS	lilfes - towards a practical hpsg parser	1998	5.12145628024295	6.603176217965117	1490297
1490514	Embedded	embedded controlled languages	2014	5.694163970882786	6.386925977759078	1490541
1491312	PL	the constructive reals as a java library	2005	4.88338509278805	6.304181356742197	1491339
1491575	Robotics	using hybrid petri nets for performance analysis in manufacturing systems	2012	5.7135485681030795	5.798828487706845	1491602
1492312	PL	solving the ttc 2011 reengineering case with grgen.net	2011	5.333477070996494	7.089798618431227	1492339
1492430	OS	buffer pools and file processing projects for an undergraduate data structures course	2004	6.034583909582963	6.4349351032154685	1492457
1492470	Networks	communication support for distributed systems: osi verus special protocols	1989	5.9861376156683965	5.590405989053195	1492497
1492807	PL	exploratory language design	1992	6.0335265141591385	6.3162121600016174	1492834
1493033	SE	entity relationship modeling in object-oriented software development	1988	6.133887107007455	6.280994814140628	1493060
1493539	HPC	hipro-codegen automatic programming for parallel numerical simulations	2014	6.172125027690859	7.292172826724179	1493566
1493909	HCI	a gui on top of a functional language	1997	5.700778128366702	6.695743427127305	1493936
1494010	PL	implications of automated restructuring of cobol	1987	5.978416680054443	6.538086409031452	1494037
1495084	SE	on the problem of uniform references to data structures	1975	5.383514371622361	6.748338299165937	1495111
1495994	PL	an improved storage management scheme for block structured languages	1991	4.854212491712262	6.510188442837518	1496021
1496204	PL	extensibility - a new approach for designing machine independent microprogramming languages	1976	5.555276508199442	7.031862158963167	1496231
1496270	DB	the type system of dbpl	1989	4.974383335436403	6.02315617901966	1496297
1497217	AI	embedding of event processing into multi-agent systems decision mechanism	2011	5.93817441365534	5.843494129497193	1497244
1497988	SE	an sgml-based programming environment for literate programming.	1994	5.919396049668255	6.3856462959356115	1498015
1498615	PL	pipeline creation language for machine translation	2014	5.8722507334181895	7.113248492663241	1498642
1498909	Logic	validation of proofs using phox	2005	4.421222545479607	5.555485342985341	1498936
1498952	PL	constraint programming	1994	4.397744509553626	6.354759599304487	1498979
1499100	PL	objects for lexical analysis	2002	5.021304243465722	6.466074213121447	1499127
1499186	AI	a lisp machine with very compact programs	1973	4.8621154788574845	6.487237905928222	1499213
1499222	PL	specification languages versus programming languages (panel)	1986	6.049800050957707	5.766379149301526	1499249
1499308	PL	a new implementation of automath	2002	4.7718218958733365	6.9002503776937925	1499335
1499358	PL	creation of views for reuse of software with different data representations	1995	5.7183936511152424	7.001160318247394	1499385
1499397	HPC	schnek: a c++ library for the development of parallel simulation codes on regular grids	2018	5.740843861869853	7.162945876192375	1499424
1500004	Graphics	the creation of the srgb icc profile.	1998	5.9038926437208294	6.2343117891075	1500031
1500288	PL	a paralation model implementation based on a concurrent lisp interpreter community	1996	5.6598446361358885	5.9393032221684745	1500315
1500634	DB	pattern-driven deadlock avoidance	2009	5.901835658773843	6.867750431402984	1500661
1502438	PL	the design and implementation of an apl dialect, eli	2000	5.923677304580162	6.684333127045986	1502465
1502582	PL	generating the analytic component parts of syntax-directed editors with efficient-error recovery	1993	6.25913398091155	6.338017025859686	1502609
1504009	SE	extending apl2 to include program control structures	1993	6.182760480734467	6.450152551723571	1504036
1504212	Logic	modular verification of equivalence for memory allocating procedures	2016	4.805474188301385	5.54448860013346	1504239
1505458	AI	recent developments in sail: an algol-based language for artificial intelligence	1972	4.720545294471457	6.387003881116925	1505485
1506550	PL	an alternative to young's module facility for pascal	1982	5.319157429052397	6.670195868490072	1506577
1506784	SE	verification of software specifications using automated reasoning techniques (abstract)	1986	4.597484451370665	6.906052093833699	1506811
1506960	PL	comparison of syntactic error handling in lr parsers	1995	5.044347213395478	6.114670966793674	1506987
1507671	PL	mathematical semantics of snobol 4	1973	4.718802336101209	6.322750523086298	1507698
1508948	AI	modeling hybrid domains using process description language	2005	4.458298756359494	6.45142271590636	1508975
1509060	PL	what do we learn from experimental algorithmics?	2000	4.786827059472894	5.584673737886325	1509087
1509401	Graphics	on implementing arbitrary precision arithmetic in nil: an exercise in data abstraction	1980	5.177211272251939	6.717033680431711	1509428
1509557	PL	an algol-like computer design language	1965	4.914724325813606	6.688688254070926	1509584
1509671	Logic	towards a framework for modelling behaviours of hybrid systems	2007	4.825074879730248	5.9020778687609585	1509698
1510548	PL	the smalltalk-76 programming system	1978	5.7396408804793735	6.852024271624483	1510575
1510762	Graphics	conventions for using an ibm 2741 terminal as a user console for access to network server hosts	1971	5.53155988151985	6.198442450025794	1510789
1510782	HPC	an integrated tool for loop calculations: aitalc,	2006	5.905341959083022	5.975957622056142	1510809
1511030	PL	modification of the pascal-p compiler for a single-accumulator one-address minicomputer	1980	5.73864989806282	6.2798559591578575	1511057
1511235	DB	checking inconsistency of rule sets in active real-time databases	2008	6.260975289863353	5.7165137661842715	1511262
1511831	DB	classes extraction from procedural programs	2002	6.034294524469599	6.610043770027728	1511858
1511870	PL	comparative study of the function overloading and function overriding using c	2014	5.12715390785313	7.395693247076586	1511897
1511979	EDA	vsta: a prolog-based formal verifier for systtolic array designs	1993	5.572773660159808	6.563108593306787	1512006
1512417	PL	type extensions	1988	4.601149166262483	7.106332817852832	1512444
1512640	DB	reflection patterns in the context of object and component technology	2002	5.849033717890299	7.36598788955096	1512667
1512664	Visualization	on the need for predictable floating-point arithmetic in the programming languages fortran 90 and c/c++	1997	5.570687054881788	6.891656777016089	1512691
1512670	PL	vissh: a data visualisation spreadsheet	2000	6.229390004370298	6.397410128727045	1512697
1512944	EDA	technology independent arbitrary device extractor	2000	5.698907310305574	6.687358741407459	1512971
1513491	PL	from formal semantics to verified slicing: a modular framework with applications in language based security	2011	5.292402438243037	6.1644733926653	1513518
1513786	Logic	stepwise refinement of distributed systems models, formalisms, correctness	1989	5.443052873763123	6.336897386604679	1513813
1514376	PL	concurrent prolog: a progress report	1985	5.742086591782429	7.214434139042963	1514403
1515086	DB	static optimization of xslt stylesheets: template instantiation optimization and lazy xml parsing	2005	5.2645772647608675	6.372803136694916	1515113
1515156	Logic	logic program synthesis	1994	4.713919339163082	7.207192038464577	1515183
1515553	PL	characteristic errors in programming languages	1978	6.155895877781403	6.704519675737648	1515580
1516149	AI	analysis of some properties for a basic petri net model	2009	5.435645410585994	5.812880797931593	1516176
1516299	PL	programming in a wide spectrum language: a collection of examples	1981	4.479313998057332	6.794624085489954	1516326
1516401	SE	an expert system for automatic codeing of abstract data type specifications	1980	4.731669269294626	6.3253714332925615	1516428
1516485	Logic	interval logic: a higher-level temporal logic for protocol specification	1983	5.405869249607552	6.681623022607257	1516512
1516611	Arch	cartesian programming: the translucid programming language	2008	4.778874590279677	6.845378339776503	1516638
1517011	SE	labelled transition logic: an outline	2001	4.442912563529359	7.227611524140237	1517038
1519111	EDA	language extension via dynamically extensible compilers	2006	6.091908096182957	6.104868772559304	1519138
1519743	PL	modula-2 input/output procedure using polymorphic and open-ended data type extensions (abstract only)	1987	5.165193758139506	6.883499498150912	1519770
1520368	AI	external behaviour of systems of state machines with variables	2013	5.396452149680479	7.014483983129512	1520395
1521334	Arch	on a general property of memory mapping tables	1982	5.219344923430072	6.212398435038684	1521361
1521868	PL	properties of a notation for combining functions	1983	4.3817889854834124	6.573714796391629	1521895
1522756	PL	designing equvialent semantic models for process creation	1986	4.608839384313812	6.373993722268334	1522783
1523185	PL	object-oriented recursive descent parsing in c#	2003	5.1886217789162385	6.453175440267762	1523212
1523327	PL	implementation strategies for diana attributes	1987	5.1493065966985805	6.827152185220036	1523354
1523517	Vision	a computational framework for colour metrics and colour space transforms	2016	5.545187664308257	6.419658812352463	1523544
1523644	PL	data abstraction in sespool	1977	5.301241162936999	7.031762542800813	1523671
1524099	AI	problem-solving methods	2000	6.1002224175919295	6.837097739240142	1524126
1524236	PL	aspectual code generators for easy generation of fixml to oo mappings	2014	5.739799238023603	7.238962151645664	1524263
1524984	SE	the programmer's apprentice: knowledge based program editing	1982	6.038581876311843	6.270582527271628	1525011
1525815	PL	preliminary report on a system for general space planning	1972	4.415108198641769	5.69669470839634	1525842
1525874	DB	generating incremental implementations of object-set queries	2008	4.934044241354997	7.260657254080106	1525901
1526833	PL	jump: a modeling language for mathematical optimization	2017	4.999701724499027	6.372574413453315	1526860
1528965	PL	debugging symbolic transformations in equation systems	2011	6.03216476110633	7.154939887188811	1528992
1529253	Logic	rewriting logic bibliography by topic: 1990-2011	2012	4.709853157025718	6.1242979663712775	1529280
1529333	Logic	some formal methods for analyzing quantum automata	2005	4.98357165378208	5.760775852083299	1529360
1529343	PL	genetic programming: a tutorial introduction	2018	4.405731831471238	5.93475443741897	1529370
1530598	PL	from pascal to delphi to object pascal-2000	2001	6.00390227043389	6.220470470866863	1530625
1531944	PL	modularity and reusability in attribute grammars	1994	6.0808551107083275	7.263307520108764	1531971
1532269	EDA	towards hilbertian formal methods	2007	6.160876359830317	6.195878443113211	1532296
1532457	PL	comparing oop languages - a critical look at c++, smalltalk, and eiffel	1993	6.118610405543633	5.619012273974953	1532484
1534225	DB	nested transactions with multiple commit points: an approach to the structuring of advanced database applications	1984	5.599350500511125	7.374556908497254	1534252
1534793	Graphics	an example of a pragmatic approach to portable interactive graphics	1974	6.148001161014295	6.21673907454467	1534820
1534845	PL	an experimental general purpose compiler	1967	5.491193349450451	6.904399006020693	1534872
1535670	SE	third-generation versus fourth-generation software development	1988	6.027794303601309	6.285600244297459	1535697
1535876	AI	formal definition of uml’s package concept	1997	5.995457073921277	7.286705155375216	1535903
1535960	Vision	an argument for the elimination of roles	1994	5.071422088546436	6.214408535046767	1535987
1536383	PL	canonical representations in lisp and applications to computer algebra systems	1991	4.37745692975202	6.498784396944788	1536410
1536423	DB	anticipation to enhance flexibility of workflow execution	2001	5.104034590975368	5.996498177296715	1536450
1537347	PL	improving the usability of a graph transformation language	2006	4.426734504452943	6.348659589380852	1537374
1537377	Embedded	desirable floating-point arithmetic and elementary functions for numerical computation	1978	4.675586099327409	6.831920915620094	1537404
1537396	PL	theories, implementations, and transformations	2002	4.516486202685613	6.3529099916578415	1537423
1537467	AI	loop invariants and mathematical games	1995	4.524768652033924	5.594812642672761	1537494
1537516	DB	towards creation of logical framework for event-driven information systems	2008	5.164686295977228	5.54417667681987	1537543
1537981	EDA	controlling behaviours of systems: some basic concepts and some applications	1980	5.109080718142192	5.853680415794816	1538008
1538239	SE	using software model checking for software certification	2010	6.193433648218296	5.949841427692649	1538266
1538339	Theory	prototype-based languages: object lessons from class-free programming (panel)	1994	5.719452527501897	6.971203065936682	1538366
1538806	AI	tptp, casc and the development of a semantically guided theorem prover	2002	4.440409436125057	6.43746950708717	1538833
1538905	PL	a program transformation for debugging haskell 98	2003	5.342656928501091	6.103675645853801	1538932
1539218	AI	increasing the efficiency of prolog lexical databases with n-gram boolean cubes	1988	4.393384246614918	6.312901024964062	1539245
1539279	PL	numerical software with result verification	2004	5.228641613458106	6.545363455699677	1539306
1539574	PL	attribute coupled grammars	1984	5.017192781185294	6.496891901504178	1539601
1539604	PL	magma2: a language oriented toward experiments in control	1984	5.104534104079247	7.3760009793185155	1539631
1539761	AI	subdefinite mathematics and novel scheduling technology	1997	5.869009919688149	6.350838901377232	1539788
1539791	SE	structural models for software reliability prediction	1976	5.671757106834803	5.659125507617366	1539818
1539853	NLP	a very short self-interpreter	2003	5.7625386678075365	6.417930037880052	1539880
1539929	SE	translating vdm specifications into abc programs	1994	5.369229481938244	7.363108436014535	1539956
1540262	PL	spider vs. prolog: simulating prolog in spider	2009	4.651126652378059	6.8139161963454224	1540289
1540530	PL	modes, values, and expressions	1975	4.627535087034949	6.674270861309943	1540557
1540652	HCI	testing and structured design	1982	5.477922145896051	5.680220738962058	1540679
1540798	PL	on the cost of mixed language programming	1984	5.995798748898258	6.150764682566834	1540825
1540810	DB	towards the algebraic specification of classes in object oriented programming	1991	5.592543409930967	5.6224741821617865	1540837
1541120	PL	symbolic debugging through incremental compilation in an integrated environment	1983	5.836031897571637	7.175759022633443	1541147
1541348	PL	filters in sl5	1978	4.494879680033066	6.784291569983016	1541375
1541419	PL	micro emulation: when to do it and when not to do it	1973	4.809336203982513	6.244940589757125	1541446
1541775	Arch	microbe: a self commenting microassembler	1977	5.4698788360453525	5.870524954814727	1541802
1541906	PL	distributed java bytecode genetic programming with telecom applications	2000	4.987196185263195	6.855835386978447	1541933
1542739	PL	a syntax and semantics of a language for operational procedures	2011	5.508668802406464	6.901181005665344	1542766
1542789	PL	use of a formal notation for static semantics in compiler design	1978	6.234826950301862	6.921548341208656	1542816
1542913	AI	structured programming - theory and practice	1979	4.660192042641071	5.7906832359553055	1542940
1543182	PL	programming with multiple paradigms in lua	2009	6.3042196534672925	7.3507767653946425	1543209
1544032	PL	learning automata and formal languages interactively with jflap	2006	4.921188997885036	6.3159399045247335	1544059
1544537	PL	mirfac: a compiler based on standard mathematical notation and plain english	1963	5.565168553207613	6.265098689838491	1544564
1544668	ML	a constructive algorithm for neural networks that generalize	1997	4.697341730506893	6.21270785824842	1544695
1544753	PL	nez: practical open grammar language	2016	5.323696025116635	7.432685159614848	1544780
1544939	EDA	eplx: a high level language for electronic switching systems	1978	6.215531061075943	7.151827217598346	1544966
1545232	PL	detecting behavioural incompatibilities between pairs of services	2008	6.0931929869794175	7.105267214743646	1545259
1545338	Logic	modelling and verification of timing conditions with the boyer moore prover	1992	4.736286583204178	5.907916307254332	1545365
1545496	PL	formal refinement and proof of a small java program	1999	4.375016016679703	6.8588048715036765	1545523
1545747	AI	minstrel reloaded: from the magic of lisp to the formal semantics of owl	2006	6.159485589035716	5.9707260051105235	1545774
1545904	NLP	grammatical inference for the automatic generation of visual languages	1999	5.069954249774338	5.9887145530584025	1545931
1545918	SE	software templates	1985	5.7945624202177575	7.275700479416916	1545945
1546192	PL	modular typechecking for hierarchically extensible datatypes and functions	2002	4.592968973066196	7.352172441591376	1546219
1546671	PL	general language translation schemata	1962	4.494922365672228	6.098371855859315	1546698
1547590	Robotics	iada: a language for robot programming based on ada	1992	6.106831534324147	6.632872251152582	1547617
1547625	PL	contrasting malicious java applets by modifying the java virtual machine	2004	4.8869713902930645	6.499185942827999	1547652
1547752	PL	the compilation of a set-based logic language for generic parallel machines	1994	4.500355532410428	6.049418368880696	1547779
1547987	Logic	procedural implementation of algebraic specifications of abstract data types	1987	5.3114498943113	7.1578667029569925	1548014
1548912	PL	checking the consistency of uml class diagrams using larch prover	2000	4.636289340636363	7.157766637006088	1548939
1549576	PL	a symbol-based extension of parsing expression grammars and context-sensitive packrat parsing	2017	4.907341289415036	6.501870716638273	1549603
1549823	AI	an efficient java-based solver for abstract argumentation frameworks: jargsemsat	2017	5.2727427278898755	6.18067761654166	1549850
1549918	Logic	directed model checking for timed automata	2009	4.4458285914421785	5.815888119402643	1549945
1550185	PL	semantics-preserving migration of semantic rules during left recursion removal in attribute grammars	2004	4.4506647463073445	7.20106654602933	1550212
1550219	Visualization	the posix family of standards	1995	5.915207262860498	6.310981213481551	1550246
1550763	DB	colan: a functional constraint language and its implementation	1995	4.866179771976338	7.216517534663317	1550790
1550775	PL	algebraic semantics of the oberon target machine	1996	4.546802651159997	7.00491126665479	1550802
1550782	PL	issues in translating smalltalk into java	1998	5.571596583025467	7.411282900980504	1550809
1550788	PL	typed self-representation	2009	4.439964630267201	7.212799370622867	1550815
1551370	PL	declarative specification of visual languages	1990	5.484471661441454	6.858469690297487	1551397
1551463	Arch	considerations for implementing a high level microprogramming language translation system	1975	5.849570191892543	6.522816523945274	1551490
1551556	PL	abstract interpretation and object-oriented programming: quo vadis?	2005	6.225240721567202	6.216994095671451	1551583
1551769	OS	linear-ordered graph grammars: applications to distributed systems design	2008	4.451983862163668	6.2705014939023185	1551796
1551843	PL	cul-de-sac and dramatic exit for use in structured languages	1984	5.168432382811155	6.8904046223445	1551870
1552208	PL	smartmethod: an efficient replacement for method	2004	5.758884356556293	7.437430688784739	1552235
1552276	PL	static analysis techniques for session-oriented calculi	2011	6.2953052312562265	7.155338262614817	1552303
1552546	PL	programming self-organizing systems with the higher-order chemical language	2007	5.237782029844156	6.851186830848203	1552573
1553828	SE	inductive programming	2009	4.375628406654023	5.675538793756028	1553855
1554747	Robotics	modelisation and automation of reasoning in geometry. the argos system: a learning companion for high-school pupils	2002	4.507452721376158	5.881391221715559	1554774
1555258	NLP	metaphoric generalization through sort coercion	1991	4.420049955259033	6.062516087306576	1555285
1555417	Logic	protocol verification via executable logic specifications	1983	5.49089186931814	6.3150174679683575	1555444
1555574	PL	weakest precondition semantics for time and concurrency	1992	4.463716407185894	7.4383729163223125	1555601
1556206	SE	automated insertion of exception handling for key and referential constraints	2012	5.735935286904478	7.3971582611317	1556233
1558258	PL	the process of purely event-driven programs	2018	6.144827034620402	7.2191417168581875	1558285
1558530	PL	dynamic type inference to support object-oriented reenginerring in smalltalk	1998	6.0527115155251074	7.0320027718655655	1558557
1558877	AI	answer set application programming: a case study on tetris	2015	4.931135791079296	6.318888429375183	1558904
1559162	AI	an equation-based approach to transition specifications in material flow networks	2014	4.907704158443352	5.893281437564357	1559189
1559485	PL	design of an interpretive environment for turing	1987	5.968364619745893	6.997014277414935	1559512
1559494	NLP	side effects	2008	5.236884676655529	5.944504124417208	1559521
1559596	PL	the transient combinator, higher-order strategies, and the distributed data problem	2004	4.6259708531587584	7.131610841696638	1559623
1560071	Logic	modelling of concurrent systems: structural and semantical methods in the high level petri net calculus	1999	5.167522315155776	7.3579791354379775	1560098
1560341	PL	foundations of rule-based design of modular systems	1991	6.1059313280908665	7.0555213150162475	1560368
1561243	PL	evolving fortran types with inferred units-of-measure	2015	5.107505627919316	7.065461060278218	1561270
1561254	PL	haskell 98 libraries: monad utilities	2003	4.830877674046749	5.552040808118108	1561281
1562257	PL	high-level binding with low-level linkers	1976	6.113598807762672	7.1123365481659615	1562284
1563094	Robotics	a motion description language and a hybrid architecture for motion planning. with nonholonomic robots	1995	5.919528991694264	6.0047069319698165	1563121
1563415	PL	integrating modular, object oriented programming and application generator technologies in large real time and distributed developments	1994	6.222004722795835	6.011077118618755	1563442
1563706	PL	characterizing prolog programming techniques	1993	5.145332561617819	6.314819621336064	1563733
1564631	PL	"""editor's foreword to """"static backward slicing of non-deterministic programs and systems"""""""	2018	4.786452675464645	5.887365266540519	1564658
1564766	Logic	satisfiability checking meets symbolic computation (project paper)	2016	4.857193223073912	5.96144407305836	1564793
1565265	DB	unique pattern matching in strings	2003	4.9359412564850444	5.9038797790647495	1565292
1565326	SE	the reality of libraries	2007	6.123292140056537	5.955550903281785	1565353
1565730	SE	adding data abstraction to fortran software	1988	5.795950546737317	6.952708900624193	1565757
1565972	Logic	m-nets: a survey	2008	5.029281819392401	5.585648032458527	1565999
1566209	EDA	assessing the impact of processor design decisions on simulation based verification complexity using formal modeling with experiments at instruction set architecture level	2012	6.206849359327389	6.473922090772805	1566236
1566691	PL	an ml editor based on proofs-as-programs	1999	5.375568461177224	6.43922940979372	1566718
1566815	PL	haskore music tutorial	1996	6.005328980973756	5.797731837297432	1566842
1567205	PL	relating logic programs via program maps	1993	4.787661790284043	7.290694486582399	1567232
1568600	Logic	compositional partial order semantics of petri boxes	1994	4.698299765382567	5.646317264076947	1568627
1568680	PL	nepal - nested data parallelism in haskell	2001	5.165812666096295	7.418330452942363	1568707
1569665	SE	static validation of c preprocessor macros	2009	6.2806027800496365	7.195380319661772	1569692
1570275	AI	a coordination-based framework for distributed constraint solving	2002	5.1242695750710965	6.783463405127749	1570302
1570820	PL	a data type encapsulation scheme utilizing base language operators	1976	5.0812094744664025	6.733917771770501	1570847
1570973	HPC	a redistribution function for a distributed array datatype on distributed computing environments	2002	5.268555036470984	5.596536655725976	1571000
1571119	Mobile	application context definition for a specific application layer protocol and rapid prototyping with estelle	1992	6.243911024978128	5.924296495764853	1571146
1571599	PL	coqpie: an ide aimed at improving proof development productivity - (rough diamond)	2016	6.248943728268206	6.554941610097039	1571626
1571706	Arch	a compiler for origami construction and verification	2009	4.7974821712659	5.7434757146189686	1571733
1572114	PL	a method for the syntax directed design of multiprograms	1981	5.054549492754715	7.187072930937173	1572141
1572285	NLP	system demonstration natural language generation with abstract machine	1998	5.300201695935935	6.617519913351791	1572312
1572889	Logic	globular: an online proof assistant for higher-dimensional rewriting	2016	4.380533248588463	6.365027918141887	1572916
1573168	Logic	using the acl2 theorem prover to reason about vhdl components	2000	4.966397873340278	6.952149199007331	1573195
1573593	AI	a visualization method for knowledge represented by general logic programs	2001	4.4133335394325455	5.631607049278106	1573620
1573978	PL	axiomatic bootstrapping: a guide for compiler hackers	1994	5.3924961537006855	7.090973808694764	1574005
1574928	Logic	specification and initialization of a logic computer system	1986	4.983150191846928	7.0036918992406045	1574955
1575199	PL	pylibjit: a jit compiler library for python	2014	6.207818741702046	7.390902855797441	1575226
1575419	DB	proceduralism and parallelism in specification languages	1980	5.206176900528122	6.995050427895852	1575446
1575583	Logic	analysis and verification of navigation strategies by abstract interpretation of cellular automata	2012	5.029022376594613	5.797606245435616	1575610
1575892	PL	a simple framework to calculate the reaching definition of array references and its use in subscript array analysis	1999	4.630260595022182	6.931232620610187	1575919
1576535	PL	tamacola - a meta language kit for the web: a report on creating a self-hosting lisp compiler on the tamarin vm	2010	6.115714925753047	7.290994981806175	1576562
1576815	Arch	dsp implementation of electric drive control system	2012	6.004877964806715	6.199732331320447	1576842
1576932	SE	an improved recipe for specifying reactive systems in z	1997	5.436103696739049	5.9583309362731525	1576959
1577060	PL	extensible protected types	1998	6.041221103003182	6.846567643313389	1577087
1577802	AI	introduction to the symbolic integration system	2013	5.883431697522813	5.787684236448585	1577829
1578180	PL	using calculist to mapreduce jsons	2018	5.950248918300943	6.780627087791374	1578207
1578502	Theory	type theory comes of age	2010	4.942524442619182	5.771779493287278	1578529
1578787	PL	engineering development of computer languages	1987	5.687011546691332	6.412894398881907	1578814
1578886	PL	reasoning about deterministic concurrent functional i/o	2004	5.273624128860839	6.301438917257554	1578913
1578904	Arch	avoiding confusion in metacircularity: the meta-helix	1996	5.429394296827186	7.114743776401975	1578931
1579086	AI	interaction of purposeful agents that use different ontologies	2000	6.078305585831767	7.121777448605312	1579113
1580309	ML	symbolic tensor neural networks for digital media - from tensor processing via bnf graph rules to creams applications	2018	5.720470623679161	6.335318081808598	1580336
1580559	Logic	local reconfiguration policies	1999	5.199271191343092	5.994894346992687	1580586
1580689	NLP	an apl microprogramming structure	1973	5.765505070183687	6.423992754917916	1580716
1581529	PL	an introduction to data representation synthesis	2012	4.932021591883608	7.297862890960952	1581556
1582360	PL	refactoring proofs with tactician	2015	4.577227913530849	6.897859804435247	1582387
1582416	SE	prolog program development via enhanced schema-based transformations	1995	4.5020201642657485	7.233901301560582	1582443
1582644	Logic	petri nets at modelling and control of discrete-event systems containing nondeterminism - part 1	2018	4.769332916028116	6.064980756332379	1582671
1583416	DB	deffs: duplication-eliminated flash file system	2011	5.306197697451601	5.70192012140265	1583443
1583517	SE	a logic for schema-based program development	2003	4.4628596741549735	6.9186840139036825	1583544
1584090	Logic	pattern matching for the masses using custom notations	2012	6.042351693558773	6.935987581543951	1584117
1585981	AI	model-based diagnosis meets error diagnosis in logic programs	1993	4.7778424011706235	5.540293315055728	1586008
1586067	DB	deductive databases - theory meets practice	1990	5.748544888576039	5.65328286473102	1586094
1586684	PL	ll(1) conflict resolution in a recursive descent compiler generator	2003	4.457239057804065	6.658004000081345	1586711
1586865	Logic	modal interface automata: a theory for heterogeneous specification of parallel systems	2018	5.0433141614257355	5.654457648185418	1586892
1586901	Robotics	the generated order preserving real-time garbage collection	1995	4.9056157987006	5.907707282264807	1586928
1587027	HPC	lowering hpf procedure interface to a canonical representation	1997	4.619961469815946	7.420228034808545	1587054
1587749	SE	the rap system as a tool for testing cold specifications	1987	5.148885896004049	5.8410734209153805	1587776
1587932	Vision	optimizing the representation of local iteration sets and access sequences for block-cyclic distributions	1996	4.553310297599713	5.755360676718484	1587959
1588162	PL	a comparison of 650 programming methods	1960	6.0078333657329965	6.3480576935735895	1588189
1588680	HPC	a two level microprogram simulator	1974	5.939835346546875	6.213132854217974	1588707
1588891	EDA	forrester diagrams and continuous petri nets: a comparative view	2001	5.103486061496881	6.107278949717259	1588918
1589094	PL	the modula-3 type system	1989	5.3259649619266565	5.753795973638186	1589121
1589237	HPC	building blocks for graph based network analysis	2014	6.295502253731756	6.359971353471992	1589264
1589470	SE	validation of array accesses: integration of flow analysis and program verification techniques	1997	5.199318698048925	5.738866212497653	1589497
1589497	Graphics	a declarative approach to graph based modeling	1994	5.537713159334893	5.55380133771013	1589524
1589828	Logic	softest: a system for the automatic verification of pl/1, cobol and assembler programs	1982	6.0439412003640856	6.194479831719675	1589855
1590173	PL	ideosy: an ideographic and interactive program description system	1984	5.689012638741223	7.176397958889765	1590200
1590253	PL	automatically generating sl parsers from ll(1) grammars	1989	4.73229604467922	6.6766512871463455	1590280
1590726	AI	pseudo abstract composition: the case of language concatenation	2012	5.514788964660218	6.268385759434531	1590753
1590851	PL	an improvement over deeply nested if-then-else control structures	1982	5.5836832521465025	7.186448333101162	1590878
1591282	SE	interprocedural data-flow testing for visual dataflow languages	2003	5.5479513758174965	6.343784903070457	1591309
1591638	SE	an abstract graph model to collect interprocedural duchains in visual dataflow programs	2003	5.350174555634131	6.246931354109986	1591665
1592226	Logic	tensor manipulation in gpl maxima	2005	5.614204707109353	6.939827929423218	1592253
1592344	HPC	properties, transformations and global events in concurrent systems	1994	4.944845270324225	5.607759092057867	1592371
1592912	EDA	proxy compilation of dynamically loaded java classes for embedded systems	2003	6.0499741433863035	6.152149360549876	1592939
1592954	PL	prolog as a simulation language	1984	5.767774720582801	6.136075729919679	1592981
1593019	AI	state-space reduction through preference modeling	2013	4.4246376768283655	5.62693624628583	1593046
1593703	PL	biomac: block structured programming using pdb-11 assembler language	1975	5.928561732812112	6.621874838389523	1593730
1593949	AI	intelligent robot programming: you can't get there from here – a viewpoint	1988	6.182583889248012	6.27470223917181	1593976
1594317	Arch	contemporary concepts of microprogramming and emulation	1969	5.07537258735826	6.3685435852948835	1594344
1594811	PL	ibm 709 tape matrix compiler	1959	4.893442729259914	6.387291728472076	1594838
1595006	PL	making a fast curry: push/enter vs. eval/apply for higher-order languages	2004	4.557629064360321	6.5619121477248035	1595033
1595781	PL	a comparison of three approaches to language, compiler, and library support for multidimensional arrays in java	2001	5.542817657909538	6.9294859764070935	1595808
1596064	PL	interview - an interview with c.a.r. hoare	2009	6.129973733927712	6.110393457671771	1596091
1596418	SE	specification of the unix filing system	1984	5.173397827981939	6.4702499443636725	1596445
1596698	PL	chemf: a purely functional chemistry toolkit	2012	5.241151661411052	7.387332025238493	1596725
1597254	DB	simplifying xml schema: effortless handling of nondeterministic regular expressions	2009	4.928660447115745	7.3359182447910145	1597281
1597291	Graphics	an example of a pragmatic approach to portable interactive graphics	1975	6.149481243241452	6.2224178872312255	1597318
1598040	PL	matching lenses: alignment and view update	2010	4.73840762521479	6.541103635471238	1598067
1598135	SE	grammar inference algorithms and applications in software engineering	2009	5.991813412944511	5.956743303819313	1598162
1598160	Logic	a general architecture model of cpdl interpreter	1995	5.747326921771082	5.796138925010941	1598187
1598380	PL	from macrogeneration to syntactic abstraction	2000	5.1950496204777155	6.626362675273469	1598407
1598684	PL	using category theory to design programming languages	2009	4.405011528577723	6.024087829690073	1598711
1599048	SE	notification-oriented and rete network inference: a comparative study	2015	4.396849370775562	5.533587071279758	1599075
1599111	Robotics	design of asynchronously stimulated robot behaviours	2013	6.167078819101191	6.080615197497041	1599138
1600951	PL	haskell 98 libraries: arrays	2003	5.1187728579980485	5.5644893303369445	1600978
1601139	EDA	a naming specification language for syntax-directed editors	1988	5.7691901635851774	6.827899545438392	1601166
1601373	NLP	application-driven automatic subgrammar extraction	1997	5.023893780368588	6.520888615618556	1601400
1601488	Logic	analysing java's safety guarantees under concurrency	2014	5.517704557587943	5.5688046855114015	1601515
1601778	Arch	object-oriented experiences with eric	1992	5.822690697903515	6.7759262061923655	1601805
1602548	Robotics	verification with abstract state machines using mdgs	1997	5.2772573613019595	5.593320006500321	1602575
1602804	PL	variant handling, inheritance and composition in the objectmath computer algebra environment	1993	5.464124552351471	6.572475245092927	1602831
1602807	PL	schema specification	1995	4.394553035014608	7.067775733082608	1602834
1602976	PL	modules for an model-oriented specification language: a proposal for metasoft	1992	5.289955654928313	7.005359178893544	1603003
1604311	Crypto	a behavioural description language for the formal treatment of protocols in distributed systems	1983	5.977531551601236	6.091378786866295	1604338
1604409	SE	defining software by continuous, smooth functions	1991	5.900750457314359	6.261581266886785	1604436
1604653	PL	design and implementation of a general-purpose input routine	1964	6.174222215723368	6.17938709658192	1604680
1604655	PL	redex: a language for lightweight semantics engineering (keynote)	2016	5.133763417080816	7.230285033982272	1604682
1605266	PL	object-oriented computations in logic programming	1994	5.405844627482287	6.5141079428991295	1605293
1605697	PL	consistency of inheritance in object-oriented languages and of static, algol-like binding	2004	4.634879487689842	7.0075440599660626	1605724
1605957	PL	object oriented programming languages for developing simulation-related software	1990	6.105672581842427	5.950284723319122	1605984
1606019	PL	module embedding	1998	5.8139889845719885	6.848978719012862	1606046
1606969	AI	a vdm approach to continuation-based semantics of prolog	1999	4.816420507189681	6.823576482015892	1606996
1607318	HCI	implementing a process oriented debugger with reflection and program transformation	1992	5.654484034488154	5.727115308405125	1607345
1607391	PL	internal representation of programs in grase	1985	5.348714813119801	6.526151099502719	1607418
1607513	HPC	multiparadigm, multilingual interoperability: experience with converse	1998	6.0583963811517885	7.17842624546047	1607540
1607593	NLP	new insights into partial evaluation: the schism experiment	1988	4.894430674437153	6.812543012781417	1607620
1608481	SE	a simple approach to system modeling	1981	4.900991581763104	5.978538666469882	1608508
1608874	PL	temporal logic programming and its relation to constraint logic programming	1991	4.3960096324229045	5.546105550368392	1608901
1609587	Logic	methods for specifying static semantics	1981	6.174993855098664	7.322759995247947	1609614
1609652	Robotics	samvaad: speech applications made viable for access-anywhere devices	2005	4.5259969643352	5.842083791400403	1609679
1609793	SE	testing the completeness of specifications	1989	5.2429708673194915	7.3539776472924885	1609820
1610793	Logic	the impact of granularity in abstract interpretation of prolog	1993	4.543464478045731	6.166804594901955	1610820
1611107	PL	new developments to skalpel: a type error slicing method for explaining errors in type and effect systems	2014	5.824776503055808	7.387023053929132	1611134
1611807	SE	basic-an evaluation of processing methods and a study of some programs	1977	6.174140404222543	6.41268237738214	1611834
1612456	PL	identifier length and limited programmer memory	2009	5.673271037688132	6.505933510069053	1612483
1612724	PL	lxg compiler - design and implementation	2004	5.526573913948679	7.193173029860183	1612751
1613517	PL	xml externalization built into compiler front-ends using a parser generator	2007	6.0947149251942285	6.774625940766923	1613544
1613518	EDA	using computer algebra to select numerical algorithms	1992	5.330320021759785	6.470049536803463	1613545
1613890	PL	integer code generation for the ti tms320c62x	2001	5.43344947447402	6.1038669626334725	1613917
1614445	PL	making a fast curry: push/enter vs. eval/apply for higher-order languages	2006	4.540622701693011	6.65309256560608	1614472
1614720	DB	application program conversion due to data base changes	1976	6.195796261217791	6.168597654062816	1614747
1615098	SE	applying testability transformations to achieve structural coverage of erlang programs	2009	6.284557819465689	7.436466757504951	1615125
1615427	PL	techniques for avoiding conditional execute in apl2	1989	4.727521431793195	6.65139947056975	1615454
1616646	PL	a fast method for implementation of the property lists in programming languages	2013	4.870243400341285	6.740831650757933	1616673
1617763	PL	evaluation issues in generic programming with inheritance and templates in c++	2006	5.557938059473019	7.128620975806651	1617790
1618086	PL	recursion engineering for reduction incorporated parsers	2005	5.062960922628014	7.131877194729912	1618113
1618129	PL	japlo: rule-based programming on java	2006	5.4836904008231055	7.087045004264884	1618156
1618364	Logic	an innovative teaching tool based on semantic tableaux for verification and debugging of programs	2011	5.017558585964119	6.793879674847101	1618391
1618823	Arch	patterns with algebraic properties in bpel0	2006	5.7045322172284445	7.4246224924992825	1618850
1619455	Logic	on deriving a lisp program from its specification	1988	5.637910915788728	5.637997313149882	1619482
1619947	NLP	a framework for traversing dense annotation lattices	2010	4.879470923765258	6.2209838743388985	1619974
1620545	PL	an interactive source commenter for prolog programs	1990	5.807265375677563	6.553449694163112	1620572
1620568	EDA	how to think about self-timed systems	2017	5.912342477726992	5.77277745335889	1620595
1621022	PL	inferring context-free grammars for domain-specific languages	2005	6.123597008465638	6.407457878265394	1621049
1621144	Robotics	a tightly integrated modelling and optimisation library: a new framework for rapid algorithm development	2001	4.835332721485732	6.324355066139634	1621171
1623046	PL	the role of composition in computer programming	1995	4.904625206218363	6.373245364671928	1623073
1623334	HPC	frames, semantic networks, and object-oriented programming in apl2	1989	5.883158179924841	5.855373522930456	1623361
1623437	Arch	apl as the doundation for a universal computer language	1990	5.867621122278991	6.414800402405626	1623464
1623627	PL	jiazzi: new-age components for old-fasioned java	2001	5.930006442273768	7.443387646554727	1623654
1623721	ML	the common lisp object system metaobject kernel: a status report	1988	6.083750737784804	7.426455517808742	1623748
1624012	SE	towards modular algebraic specifications for pointer programs: a case study	2007	4.781216729070591	7.13864789980113	1624039
1624314	PL	composable attribute grammars: support for modularity in translator design and implementation	1992	5.035251070746712	7.1967189509299425	1624341
1624368	PL	exploiting abstraction for specification reuse. the java/c# case study	2003	5.6303092810267525	7.054028181200468	1624395
1624512	PL	the cray-1 computer system	1978	5.591919149271816	6.727094373840791	1624539
1624987	DB	macsyma: capabilities and applications to problems in engineering and the sciences	1985	5.789307576580543	5.598783864388492	1625014
1625119	PL	haskell 98: declarations and bindings	2003	4.805042133217191	7.254334206504077	1625146
1625351	SE	an extended line-based approach to detect code clones using syntactic and lexical information	2010	5.93294473786134	6.517067666083393	1625378
1625677	PL	language definition and compiler writing : the correctness of an applicative language system	1984	4.860399428066684	5.765835771063888	1625704
1626635	OS	file-handling within fortran	1965	5.933848407070018	6.2720006896244715	1626662
1628007	Logic	applicative approach to information processes modeling - towards a constructive information theory	2013	5.761715819788604	6.914554409772348	1628034
1628949	PL	designing families of data types using exemplars	1989	4.940577128744321	7.125468673146778	1628976
1629719	PL	prose as a model of computation.	2007	5.708746186026678	6.463261196969556	1629746
1629741	AI	context holders: realizing multiple layer activation mechanisms in a single context-oriented language	2014	5.264244784148748	6.992103462826347	1629768
1630170	PL	syntax and semantics of a persistent common lisp	1994	5.9434350127617455	7.427817781202308	1630197
1631365	PL	a rosetta stone for array languages	2018	5.480534320738824	7.072147471955415	1631392
1631378	PL	an algorithm for the design of simple precedence grammars	1972	4.5471694999956425	5.8575740108871575	1631405
1632731	SE	an alternative approach to arrays	1982	5.130555805988326	6.747317241220364	1632758
1634120	PL	es: a shell with higher-order functions	1993	5.726044678827745	6.572938710017882	1634147
1634125	ML	learning to learn programs from examples: going beyond program structure	2017	5.413858051794429	6.449171341035303	1634152
1635164	SE	adic: an extensible automatic differentiation tool for ansi-c	1997	5.6510341563950774	7.061440933653326	1635191
1636132	EDA	loop optimization (dagstuhl seminar 18111)	2018	5.289269533299588	6.4409562615113245	1636159
1636232	SE	a simulation environment for protocol specifications described in estelle	1985	6.152619691741688	5.630712363428423	1636259
1636849	SE	reasoning about client-side web programs: invited talk	2010	5.658867782980393	6.657235888413916	1636876
1637099	PL	abstract interpretation and low-level code optimization	1993	5.788157957759683	7.102595017929282	1637126
1637247	NLP	parsing of hyperedge replacement grammars with graph parser combinators	2008	4.446695744863218	6.675420528294129	1637274
1637501	PL	another proposal for a concurrency control level in concurrent object-oriented languages	1991	5.759011645228474	7.151411643022403	1637528
1638194	PL	giving semantics to sa/rt by means of high-level timed petri nets	1993	5.586276083239992	7.321537867667285	1638221
1638860	PL	polymorphic names, types, constancy and magic in a type secure persistent object store	1987	4.510161653828434	7.378718107085088	1638887
1639521	Logic	hybrid automata model of the heart for formal verification of pacemakers	2016	5.496060487058224	6.032477242007749	1639548
1640554	Arch	pvcoherence: designing flat coherence protocols for scalable verification	2014	5.899462456466275	6.193247201694599	1640581
1640577	SE	fortran 77 portability	1981	6.21775305067814	6.516675312262218	1640604
1641167	PL	a new approach to compiling adaptive programs	1996	4.4668025048443685	7.082330690925737	1641194
1641323	DB	a new proposal for debugging datalog programs	2008	4.718514238787678	6.153304476501503	1641350
1641518	HCI	a tableau based constraint solving toolkit for interactive graphical applications	1998	6.067595084587254	5.682956615950132	1641545
1641562	SE	automatic compiler production: the front end	1987	5.869642763969289	6.786778958047465	1641589
1641834	HCI	a re-engineering process using early decomposition and simple tools	1998	6.24536357704118	6.501061085203895	1641861
1642399	OS	are stochastic process algebras good for performance and dependability evaluation	2000	5.795688027969811	5.598270521378024	1642426
1642735	Logic	computing optimal operation schemes for chemical plants in multi-batch mode	2000	6.282276428796385	6.7983106334441885	1642762
1642889	DB	compiling xquery to java bytecodes	2004	5.770297930922457	6.482150199499646	1642916
1643269	Theory	objective lucid - first step in object-oriented intensional programming in the gipsy	2005	5.332413064425056	5.789394250508398	1643296
1643307	Arch	some simple microprocessor kit enhancements	1977	5.875280906208148	6.5388159517772415	1643334
1644132	Logic	tool-supported identification of functional concerns in object-oriented code	2010	4.466946605639742	7.021055317560448	1644159
1644608	PL	pattern-matching compiler	2001	4.708269788039709	7.031253378196883	1644635
1644860	PL	praxis: a program for reproducing proforma design calculations	1990	5.119007274407509	5.662992224103732	1644887
1644907	Theory	alex: the logic programming language with explicit control and without cut-operators	1988	4.578374684323224	6.744994937509582	1644934
1645945	Crypto	interprocedural constant propagation: a study of jump function implementations	1993	4.949517157888371	5.604556964187213	1645972
1646069	PL	building friendly parsers	1982	5.3425952555731735	6.6997997520571495	1646096
1646172	EDA	logic based extensions of stochastic process algebras for high-level performance modeling and evaluation	2000	5.617245323064879	5.752964980892091	1646199
1646390	SE	file structures, program structures, and attributed grammars	1983	4.838358685926416	6.484792419241499	1646417
1647344	NLP	protocol conformance test generation using a graph rewriting system	1991	6.273138484306397	6.862052725962131	1647371
1647434	NLP	implementing the xquery grammar: from bnf to parse tree to backend data structures	2002	5.440232193702303	5.823730732828912	1647461
1647457	Logic	an automata-theoretic approach to automatic program verification (preliminary report)	1986	4.519573097110911	5.771688469295764	1647484
1648048	Robotics	the design of comma: an extensible framework for mapping constrained objects to native solver models	2007	5.617957744472887	6.874906969981327	1648075
1648373	AI	information hiding and the complexity of constraint satisfaction	1995	4.471593720764437	6.188632965969782	1648400
1648436	NLP	keywords: scanners and screeners	1999	4.803650210765922	6.323279582619161	1648463
1648549	PL	a p-lingua programming environment for membrane computing	2008	5.688806541973289	6.895902079375179	1648576
1648578	PL	logic programming with graph automorphism: integrating naut with prolog (a tool paper)	2016	4.5466195529873055	7.335727417885329	1648605
1648978	OS	the semantics subsystem in distributed os formalization generating system	1997	5.708678094572327	6.9820482688836965	1649005
1649342	Robotics	the specification-based testing of a trusted kernel: mk++	1997	5.563232186535358	7.193300916089147	1649369
1650023	PL	evolving algebras and partial evaluation	1994	4.624293962696128	6.0182254100477985	1650050
1650753	Theory	solving classic problems in distributed systems: the smart-message paradigm	2008	5.295056940792394	5.905692841818534	1650780
1651162	OS	dynamic storage allocation in the atlas computer, including an automatic use of a backing store	1961	5.702891159780996	6.095887364325818	1651189
1651901	PL	datatype-generic programming	2006	4.4773846703177265	6.6842810416935325	1651928
1652075	Theory	programs for instruction machines	1979	4.853815858562767	6.047339165380842	1652102
1652579	DB	conversion of the iupac notation into a form for computer processing	1969	4.522466277951622	6.442076956295872	1652606
1652665	SE	a model of human cognitive behavior in writing code for computer programs	1975	5.660123158906742	6.514506506342412	1652692
1652760	PL	efficient and type-safe generic data storage	2009	4.982916660748006	7.18400965489627	1652787
1653108	PL	some correctness principles for machine language programs and microprograms	1974	4.527555357884863	7.348389097009914	1653135
1654273	Arch	abstract machine design for inceasingly more powerful algol-like languages	1983	4.9575300573609535	5.7807875895965095	1654300
1655249	Embedded	an automatically generated and provably correct compiler for a subset of ada	1992	5.23753700351134	7.290307038805506	1655276
1655329	EDA	petri net modeling of a flexible assembly station for printed circuit boards	1991	5.953898602788168	5.717166573115074	1655356
1655429	SE	a case study of evolution in object oriented and heterogeneous architectures	1998	6.2071742602336135	7.21039933537645	1655456
1656125	HPC	leotask: a fast, flexible and reliable framework for computational research	2015	4.655469439865771	6.1898866542535815	1656152
1656474	PL	is this the problem in commercial applications programming?	1974	5.394891090747707	6.63958954245976	1656501
1656656	AI	what are the 'carry over effects' in changing from a procedural to a declarative approach?	1989	5.1064594981572125	6.2647045905476375	1656683
1656907	PL	gel: a generic extensible language	2009	5.131850111127861	7.123670351657776	1656934
1658270	Logic	the database specification language ruslan: main features	1994	5.582478841919347	6.715288083567586	1658297
1658928	PL	embedding genetic improvement into programming languages	2017	5.919257239586985	6.9076894854036475	1658955
1658929	Embedded	constructive real interpretation of numerical programs	1987	4.603465300111972	6.90262145525884	1658956
1658987	AI	functional representation and program debugging	1991	5.166147663463712	5.726228443565874	1659014
1659402	EDA	language design methods based on semantic principles: algol 68, a language designed using semantic principles	1981	4.983221085481693	6.268398693105185	1659429
1659783	PL	the impact of mesa on system design	1979	6.106107586813548	6.932627734273902	1659810
1660343	Theory	a semantic view of algol 68	1979	4.829472991323526	6.246052295863423	1660370
1660363	AI	assessing inheritance for the multiple descendant redefinition problem in oo systems	1997	5.450598943627788	6.821375840244802	1660390
1660413	PL	algorithmic patterns for orthogonal graph drawing	1998	6.249483485681907	6.142549695842635	1660440
1660563	PL	some remarks on records with variants	1984	4.620248537757448	7.182222622873173	1660590
1661580	PL	program verification, defeasible reasoning, and two views of computer science	1991	5.152781050232507	6.684756634507628	1661607
1661868	Logic	formal verification of x-machine models : towards formal development of computer-based systems	2003	6.2286810496770215	6.1439805179525315	1661895
1662533	PL	software reuse by specialization of generic procedures through views	1997	5.869682317256742	7.010643760216483	1662560
1662550	EDA	cali, efficient library for cache implementation	2004	5.658747698201388	6.008099330622767	1662577
1663689	SE	on data flow guided program testing	1982	4.4923758825984335	6.539678786058843	1663716
1663798	NLP	problems with the language modula-2	1988	5.099775229174722	6.975910307656737	1663825
1663993	PL	pattern-based tree attribution	1992	4.742098240648522	7.059152402610129	1664020
1664096	PL	spreadsheet functional programming	2007	5.221510007867815	7.047110923416043	1664123
1664412	SE	runtime checking for iso standard pascal	1981	5.497374840683564	6.804753716754508	1664439
1664584	PL	using classic problems to teach java framework design	2006	5.898567345754112	6.279882502363473	1664611
1665578	PL	a simple, natural notion for applicative languages	1982	5.060142064414208	6.131518034115393	1665605
1665998	PL	the translator pattern - external functionality with homomorphic mappings	1997	5.760498166573353	7.357706530037791	1666025
1666353	AI	towards a policy language for humans and computers	2004	4.432809401099699	7.1855811607451	1666380
1666847	Logic	general arrays, operators and functions	1973	4.973262065593658	6.37340716883687	1666874
1667272	Arch	a proposed standard for extending high-level languages for microprocessors - ieee task p755	1981	5.6075500711607305	6.636590627712378	1667299
1667447	Mobile	linking simulation with formal verification and modeling of wireless sensor network in tla+	2010	5.815183199310844	5.803533669392077	1667474
1669023	SE	automatic detection of c++ programming errors: initial thoughts on a lint++.	1991	5.431835568602973	7.026196241610688	1669050
1669438	EDA	effectiveness of operating system prototyping from a template: application to minix	1991	5.489860520594869	7.3192845730388925	1669465
1669528	HPC	graphical user interfaces and automatic generation of sequential and parallel code for scientific computing	1988	5.451984721251135	6.33186616122858	1669555
1669982	SE	experiments in data flow analysis of communicating finite state machines	1993	5.772818182867155	5.749985785818599	1670009
1670338	PL	incremental parsing	1979	4.68298239134505	6.293775965996589	1670365
1670418	PL	thanks, heaps	1985	4.563450184739117	7.026136939718305	1670445
1671833	PL	abstraction and modularization in the beta programming language	2000	5.303634441365107	6.823479489201842	1671860
1672634	DB	linkers and loaders	1972	5.942978489834181	6.491848468669563	1672661
1673305	PL	packrats parse in packs	2017	4.402306242531749	7.1850924689280085	1673332
1673716	ML	multiple-query optimization at algorithm-level	1994	5.168355418363426	6.10730350402962	1673743
1673956	SE	software testing and analysis - process, principles and techniques	2007	4.464010850113617	6.679609985638844	1673983
1674698	Logic	modalities in analysis and verification	1996	4.666689089545848	7.3878747530627935	1674725
1674761	OS	a low-cost implementation of coroutines for c	1985	5.1446967471496015	6.783972305802872	1674788
1675741	Logic	achieving a uniform interface for binary tree implementations	1995	4.9356315784107485	6.904074958668377	1675768
1676460	PL	process communication environment	1992	4.807707207055344	5.959998941043339	1676487
1677098	Arch	costing stepwise refinements of parallel programs	2007	5.403813995999093	7.368012225899832	1677125
1677120	SE	monitoring the run‐time activity of algol 68‐r programs	1978	5.123604019938869	7.307755616237099	1677147
1677238	Robotics	towards programming tools for robots that integrate probabilistic computation and learning	2000	5.0744459641084925	6.429013577123362	1677265
1678319	DB	a type-safe object-oriented solution for the dynamic construction of queries	2004	6.1036369886317825	6.963991919222269	1678346
1678471	NLP	formalization of the vdm reification in the deva meta-calculus - the human-leucocyte-antigen case study	1990	5.90609965816535	5.998457079093879	1678498
1678834	SE	linguistic extension of abstract machine modelling to aid software development	1980	6.18897255879529	7.113269367801447	1678861
1679447	PL	hermit: an equational reasoning model to implementation rewrite system for haskell (invited talk)	2014	4.714287094961668	6.804355849471508	1679474
1679526	HCI	a new calculator and why it is necessary	1995	5.346456156467781	6.910234269246884	1679553
1679959	PL	verifying component-based software: deep mathematics or simple bookkeeping?	2009	5.896230548289836	7.2314467537833025	1679986
1679971	PL	a mechanized semantics for c++ object construction and destruction, with applications to resource management	2012	4.717776040485455	7.449021729803762	1679998
1680803	NLP	improving the performance of the link parser	2009	4.777561027236783	6.301571386070282	1680830
1681491	NLP	portability by automatic translation: a large-scale case study	1999	5.7060649694927825	6.850118719547938	1681518
1681687	PL	efficient computation of derivatives for solving optimization problems in r and python using swig-generated interfaces to adol-c	2018	6.144964385926952	6.8872086512744985	1681714
1681885	SE	on execution semantics of uml statechart diagrams using the pi-calculus	2003	5.835636911876103	6.351800529359324	1681912
1682429	PL	efficient implementation of polynomial arithmetic in a multiple-level programming environment	2006	4.636992287786021	7.339463928311166	1682456
1682777	NLP	chart parsing and rule schemata in psg	1981	4.777093518053982	5.837312547474857	1682804
1682970	NLP	hyp: a toolkit for representing, manipulating, and optimizing hypergraphs	2015	4.741949896338175	6.220520307529997	1682997
1683020	PL	a semantical approach to method-call interception	2002	6.30683338360696	7.42177209191762	1683047
1683099	Logic	an interactive theorem proving assistant	1999	4.818540369236233	5.833707782201548	1683126
1683788	AI	development of modular ontologies in casl	2006	5.044994192129099	5.9149143194207765	1683815
1684255	PL	lp/lisp: literate programming for lisp	2010	5.804921286518762	6.529929557383372	1684282
1684899	SE	a flexible approach to test program cross compilers	1991	6.000480473592322	6.606542295901432	1684926
1685171	DB	a general model for event specification in active database management systems	1997	4.849765714595294	5.774867221347277	1685198
1685180	Metrics	a dual processor vax 11/780	1982	5.986296891389787	6.558908595872215	1685207
1685562	PL	compiling a 50-year journey	2017	4.5074017186354665	6.407610820084959	1685589
1685909	SE	ddbx-lpp: a dynamic software tool for debugging asynchronous distributed algorithms on loosely coupled parallel processors	1993	6.144665858798209	6.711737496595599	1685936
1686123	PL	pascal implementation of a lisp interpreter	1987	5.490224079457977	7.246736490341325	1686150
1687429	AI	adimen-sumo: reengineering an ontology for first-order reasoning	2012	6.266294780079679	6.447376385641353	1687456
1689149	Logic	tm: a code generator for recursive data structures	1992	5.63562976104991	6.566800695176406	1689176
1689402	PL	a commenting system to improve program readability	1982	5.67220776554294	6.5122633974647774	1689429
1689668	PL	comparing approaches to generic programming in haskell	2006	5.599520959131367	6.765914163377342	1689695
1690497	PL	a theory of incremental computation and its application	1991	6.158664775418184	6.7784217880217135	1690524
1691086	Logic	runtime verification of railway applications with extended live sequence charts	2016	5.873513644046283	6.032512883593063	1691113
1691628	PL	implementation of abstract data types with arrays of unbounded dimensions	1996	4.762222593802831	6.99879216979091	1691655
1691882	Vision	higher-order pattern matching for automatically applying fusion transformations	2001	4.474187136272062	6.447402128360643	1691909
1691926	AI	improved algorithms for module extraction and atomic decomposition	2012	5.3027208374056265	5.713117934250129	1691953
1692012	SE	lady ada mediates peace treaty in endianness war	2013	5.18259810085099	7.08395124584579	1692039
1692262	PL	ml module mania: a type-safe, separately compiled, extensible interpreter	2006	5.892355505734106	6.569435203730844	1692289
1692537	HPC	the transformational derivation of parallel programs using data distribution algebras and skeletons	1997	4.696661567704144	5.7193779226331865	1692564
1692604	AI	translations of vocabularies in systems of communicating agents	1998	4.632426270880722	7.077445879851793	1692631
1692874	Embedded	design of an integrated programming an operating system part v: the system's cobol compiler	1963	6.175566069674602	6.383192117289985	1692901
1693020	AI	maplis - a matrix oriented language for modelling and interactive simulation	1983	5.676839553253277	5.5505546578834455	1693047
1693183	PL	process in programming languages	1996	5.284903645781243	7.0546875708505175	1693210
1693696	Logic	model and verification of a data manager based on aries	1992	5.5770600271625845	6.325109696075536	1693723
1694364	Arch	language support for designing multilevel computer systems	1981	6.006372933008	6.975167774803651	1694391
1694821	PL	visualising objects: abstraction, encapsulation, aliasing, and ownership	2001	5.397787253869104	7.22198961308416	1694848
1694870	Logic	an algebraic semantics for the specification language z++	1991	4.580527163957437	5.587018590604449	1694897
1694943	PL	some suggestions for the use of tables in compilers	2006	5.631971490116634	6.89886209122509	1694970
1695477	PL	a versatile module system for prolog mapped to flat prolog	1993	5.160107641541493	7.25573284894741	1695504
1695698	Logic	specification and verification of learning	1994	5.424047007748321	6.3905192796058135	1695725
1698091	DB	generating relational database transactions from eb 3 attribute definitions	2008	6.202459824306723	6.327269587042683	1698118
1698328	SE	programming abstract data types, iterators and generic modules in c	1990	5.989250960838479	7.034176547524079	1698355
1698535	ML	starlet - a computer concept based on ordered sets as primitive data types	1974	4.411424102817883	6.623076921885258	1698562
1699788	SE	gist english generator	1982	4.870733683772334	6.156483016693041	1699815
1699942	PL	routine run-time code generation	2003	5.679519387632557	7.364549981271431	1699969
1701796	AI	a formal approach to program inversion	1990	4.858467634281861	5.993597835911402	1701823
1702960	PL	formal grammar for java	1999	4.868492494103468	7.077279197781508	1702987
1703149	HPC	semantically transparent selective reset for and parallel interpreters based on the origin of failures	1987	5.074581663901621	5.57275794119392	1703176
1703529	PL	what is object-oriented programming?	1987	5.662495120945318	6.955516593933965	1703556
1703530	PL	denotational semantics of a goal-directed language	1992	5.972190120366763	6.072881255127117	1703557
1703796	AI	machine learning for constraint solver design -- a case study for the alldifferent constraint	2010	4.822222664426248	6.400316022572375	1703823
1704417	PL	free composition instead of language dictatorship	2012	5.327048506068566	7.2679843344612465	1704444
1704831	SE	precision vs. scalability: context sensitive analysis with prefix approximation	2015	4.853561633309857	6.741865792983853	1704858
1705462	SE	direct implementation of algebraic specification of abstract data types	1982	5.380308718969308	7.193046529698106	1705489
1705697	EDA	design flow management in the nelsis cad framework	1991	6.3070801327975285	5.580230908743527	1705724
1705930	Logic	fuzzy types: a first step towards lazy types in the .net framework	2004	5.584972193561312	7.120284198404202	1705957
1705940	OS	the people's time sharing system	1973	5.9203621425417925	6.570409574448713	1705967
1706460	PL	values and objects in programming languages	1982	5.2058468753774	7.0165246701930855	1706487
1706575	PL	automatically selecting and optimizing constraint solver procedures for object-constraint languages	2016	5.020387401375056	7.308379186744957	1706602
1707439	Arch	an abstract algol 68 machine and its application in a machine independent compiler	1975	4.727733072302598	6.988234464647982	1707466
1708022	PL	functional programming and logical programming for the telegram analysis problem	1984	5.258193812876163	6.998393426670468	1708049
1708728	PL	some syntactic methods for specifying extendible programming languages	1969	4.895117106789726	6.738584039829625	1708755
1709215	PL	an approach to incremental compilation	1984	5.59728118066489	6.636340905485442	1709242
1709655	NLP	the structure of system/360 part v: multisystem organization	1964	6.3004211747168775	5.601411463030645	1709682
1709685	PL	automatic translation of vdm specifications into standard ml programs (short note)	1992	5.416000529377341	7.0817141531247065	1709712
1710019	PL	automatic error recovery for lr parsers	1978	4.531416008925653	6.07145759906012	1710046
1710110	PL	a language independent error recovery method for ll(1) parsers	1984	4.6912586902676985	6.397413005471742	1710137
1710426	NLP	chart parsing of flowgraphs	1989	4.584009278274206	6.609279953106591	1710453
1711459	PL	a fortran coded regular expression compiler for ibm 1130 computing system	2009	5.116025015157931	6.818583477658598	1711486
1711587	AI	visualinda: a framework for visualizing parallel linda programs	1997	4.764380424932293	6.1930131755068825	1711614
1711736	SE	goal-directed program transformation	1976	5.144485692172687	6.8713475616947255	1711763
1711915	OS	dynamic integration of foreign-language parsers into an ncl player	2018	6.022345037728747	7.062198746917324	1711942
1712544	PL	proof of a program: find	1971	4.525237787641135	7.02694568034315	1712571
1712616	NLP	invertible syntax descriptions: unifying parsing and pretty printing	2010	4.785558713411793	6.605465631267613	1712643
1713751	NLP	adding classes to the c language: an exercise in language evoluation	1983	5.916809302296523	6.859923704366144	1713778
1714150	Logic	design-efficiency in security	2013	5.750148493191383	5.8162805741914285	1714177
1714973	PL	a tutorial on simulation programming with simpas	1981	5.197180708051847	7.0807743815085775	1715000
1715009	Theory	preface: program transformation: theoretical foundations and basic techniques. part 2	2006	5.376514239279598	5.591820354763169	1715036
1715632	SE	reachability analysis of the html5 parser specification and its application to compatibility testing	2012	5.8019308056875705	7.070342103909521	1715659
1715767	PL	biyacc: roll your parser and reflective printer into one	2015	5.713014003816718	7.015320252468673	1715794
1715944	AI	the framework approach for constraint satisfaction	2000	5.957751574641062	6.29743754838241	1715971
1716163	EDA	high-level petri nets with object-orientation - a high-level petri net model allowing multiple inheritance and multiple polymorphism	2010	5.940682621658432	6.630657317116017	1716190
1716452	PL	making standard ml a practical database programming language	2011	5.78500435201267	6.617805365175705	1716479
1716537	PL	explaining polymorphic types	2002	4.382117332908181	7.163633270408895	1716564
1716711	AI	synthesis of search algorithms from high-level cp models	2011	5.5480196904502925	5.534334070277053	1716738
1717520	Logic	a metaprogramming approach to generating optimized code for algorithms in linear algebra	2005	4.7506288389732285	6.885255335174509	1717547
1717625	PL	very high level languages - some aspects of the evolution of language design	1977	5.949716700041352	5.8603119759418885	1717652
1717710	Arch	the implementation of pc scheme	1986	5.442315338994336	6.819613429425387	1717737
1718028	AI	building the world from first principles: declarative machine descriptions and compiler construction	2005	5.555397781507798	6.57011856828096	1718055
1718476	SE	a logical theory of interfaces and objects	2002	4.84814357169999	5.610074091051795	1718503
1719446	Security	nail: a practical interface generator for data formats	2014	4.997517216539945	6.955899375578293	1719473
1720212	PL	strategies for data abstraction in lisp	1980	5.1969434082765416	6.7949878324364255	1720239
1720645	SE	program graphs, an algebra, and their implication for programming	1975	4.745266066841522	5.778659987563171	1720672
1720793	Logic	the asf+sdf meta-environment documentation tools for free!	1995	5.248562482031697	5.703384682085111	1720820
1721864	Mobile	meta-s: a strategy-oriented meta-solver framework	2003	4.545600512484913	5.573816016036611	1721891
1722312	SE	decoupling change from design	1996	4.9761483442085614	7.377218575933495	1722339
1722790	PL	debugging natural semantics specifications	2005	6.0146411647308025	7.437278758514262	1722817
1723630	Web+IR	recursion in sparql	2015	5.6570956581489025	5.7797978855202725	1723657
1724025	NLP	a strategy to introduce functional data modeling at school informatics	2005	4.819633938919184	6.579264938749333	1724052
1724803	NLP	real-size compiler writing using prolog with arrows	1991	5.1867710356326215	5.5975337922784245	1724830
1725143	NLP	reasoning about an acme printer case investigation with forensic lucid	2009	6.029685812257212	7.340037756822602	1725170
1725664	NLP	yaps: python frontend to stan.	2018	4.9047320728198525	6.7688171590705375	1725691
1725678	SE	the c++ hybrid imperative meta-programmer: chimp	2008	5.704909179289957	6.840395611245122	1725705
1726388	Logic	a management scheme for the basic types in high level languages	2005	5.012553186841429	6.7161603193720625	1726415
1726675	Robotics	real-time operating system modelling and simulation using systemc	2010	5.963418294771406	5.7378004429357015	1726702
1726977	PL	program reusability through program transformation	1984	4.926854097606932	7.2474653216031655	1727004
1727037	NLP	improved glr parsing algorithm	2005	4.411934487244833	6.4821629891956425	1727064
1727383	AI	debugging asp programs by means of asp	2007	5.479433598460857	6.605740937303294	1727410
1727776	PL	go meta! a case for generative programming and dsls in performance critical systems	2015	6.2095468031951215	6.645576973207962	1727803
1728669	AI	team gamma: agent programming on gaea	1997	6.2449965529830935	5.967627322388812	1728696
1728704	PL	a language-independent programmer's interface	1974	6.069742577422817	6.35856727390602	1728731
1729650	PL	problems in, and a pragmatic approach to, programming language measurement	1971	5.275847058056722	6.652025171361425	1729677
1729805	PL	compiling embedded languages	2000	4.429800395504472	6.8769929033115815	1729832
1730624	HPC	gencray: a portable code generator for cray fortran	1989	5.455760456948111	6.2970866476810246	1730651
1730644	Arch	convert2java: semi-automatic conversion of c to java	2001	6.058727525393177	6.825943055170653	1730671
1730868	AI	a general approach for building constraint languages	2002	4.46512992458055	5.9970668832386425	1730895
1731747	PL	on the construction of persistent programming environments	1988	5.659658614225216	7.450042575616402	1731774
1732572	PL	interprocedural alias analysis: implementation and empirical results	1993	4.991803037999621	7.093265208033963	1732599
1732641	HPC	fast forwarding fortran, part 1: clean fortran	1996	5.2233562420856385	6.748561535058105	1732668
1733373	NLP	rgg+: an enhancement to the reserved graph grammar formalism	2005	5.1551222214275265	6.202558724544373	1733400
1733794	PL	the hermit in the tree	2012	5.607951010293838	7.17456391383806	1733821
1733835	PL	rule based programming in c	1989	6.040641686846915	6.764112008465188	1733862
1733893	HPC	scalable genomics: from raw data to aligned reads on apache yarn	2016	4.852012928617658	5.8166746981090185	1733920
1734765	AI	cback: a simple tool for backtrack programming in c	1995	5.529669565917337	6.819500269741624	1734792
1734953	PL	interface language for supporting programming styles	1994	6.115887603219732	7.342409501431326	1734980
1735550	SE	modelling and validating an engineering application in kernel p systems	2017	6.152704420324907	6.889613307440139	1735577
1735873	PL	refined description of the c[] language	2002	4.421002228180658	6.263609510854706	1735900
1736034	PL	debugging for a declarative programming language	1995	4.581145292992199	7.135565320765227	1736061
1736084	AI	playing mastermind logically	1983	4.981759473991651	5.553956872510872	1736111
1736445	PL	on the organization of pascal blocks	1985	5.683277141066319	5.655401816532043	1736472
1736747	PL	efficient interpretation of synchronizable series expressions	1987	4.9593530190814485	7.392984083559106	1736774
1736983	PL	performance comparison of cobol vs. pascal: a comparative investigation	1989	5.84578863890306	6.492372556320214	1737010
1737225	PL	java type inference as an eclipse plugin	2015	5.63525723932709	5.9591765460375035	1737252
1737368	PL	abstraction-level functional programming	2008	5.725685876171839	5.876269374598093	1737395
1738216	AI	modeling and verification of distributed autonomous agents using logic programming	2004	5.81360334858001	6.725471665154713	1738243
1738674	PL	a cai implementation of pascal	1985	5.58230892365857	6.641972508689594	1738701
1738992	PL	automated analysis of mutual exclusion algorithms using ccs	1989	4.675855353905239	7.146438886498954	1739019
1740353	NLP	an efficient implementation of patr for categorial unification grammar	1990	4.691017406953796	6.365033506425152	1740380
1740591	HPC	introduction: techniques and tools for parallel and distributed program analysis, development and run-time support	2000	5.625254609833244	5.689897427980172	1740618
1741416	SE	a brief account: implementation and applications of a pascal program verifier (position statement)	1978	5.4356087050763655	6.896931247271232	1741443
1741546	OS	dasim 1: a practical exercise in data abstraction	1979	4.437630793797725	6.553658624899702	1741573
1741600	Graphics	a dynamic apl gui equation solver (adage)	2000	5.168172302369505	6.318953319472064	1741627
1742414	PL	more on algorithms that reveal properties of floating point arithmetic units	1974	5.8352964048201885	6.538926923682604	1742441
1742686	AI	deeptelos: multi-level modeling with most general instances	2016	4.761477081833668	5.682066571327031	1742713
1742938	AI	specifying and verbalising answer set programs in controlled natural language	2018	4.853649595007919	6.734537467654499	1742965
1743142	SE	a high-level job control language	1975	5.987882093529552	6.375697166662648	1743169
1743612	PL	recursive convergence	2017	4.608014739177278	7.189414890895277	1743639
1745172	Crypto	approximate non-interference	2002	4.900546114364187	6.3831978302286165	1745199
1745602	SE	a simple system for constructing distributed, mixed-language programs	1988	5.901422314734233	7.1113857271602665	1745629
1746753	Logic	using checking sequences for osi session layer conformance testing	1987	6.110199100697608	5.637244247894246	1746780
1748797	Web+IR	in search of elegance in the theory and practice of computation	2013	4.955960563275519	5.702107794223598	1748824
1749596	Embedded	finite automata models for cs problem with binary semaphore	2006	4.856057655037704	5.984882663314973	1749623
1749962	PL	denotational semantics as a specification of code generators	1982	4.762753397667773	7.175763260894665	1749989
1750726	SE	a case for alloy annotations for efficient incremental analysis via domain specific solvers	2011	4.523868098340544	7.0582256133336205	1750753
1751206	PL	the gnat compilation model	1994	5.662570465958006	7.35816648103866	1751233
1751585	Robotics	esprit project p973 alpes: advanced logical programming environments	1987	5.07294826215157	6.706241720589688	1751612
1751877	EDA	a two-pass tms320c25 for the motorola exormacs	1992	5.770462204846883	6.440536728413443	1751904
1751912	PL	decoding lua: formal semantics for the developer and the semanticist	2017	5.3686797237882775	7.398449468388928	1751939
1752761	DB	ps-algol: an algol with a persistent heap	1982	5.593856177918417	6.462229828239972	1752788
1752871	DB	design of an intermediate representation for query languages	2016	5.050463188507552	6.980190617249041	1752898
1752893	PL	yes! high level languages should be used to write systems software	1975	5.371772244294622	6.708890640327798	1752920
1753048	PL	an object oriented approach to constructing recursive descent parsers	2000	6.013448076494919	6.456117173244334	1753075
1754178	AI	a bonus from van wijngaarden's device	1972	4.53378528698379	6.4035930123947375	1754205
1754312	Logic	invited talk: weaving formal methods into the undergraduate computer science curriculum	2000	6.106181263349501	7.265987670017588	1754339
1754522	AI	iteration constructs in data-flow visual programming languages	2000	5.2265759700475725	6.165766078404363	1754549
1755008	NLP	a microcomputer system for processing natural languages	1982	5.749947848018204	6.074546301210322	1755035
1755021	Robotics	ats: a lisp environment for spectral modeling	1999	6.138697663339872	5.9809752826463525	1755048
1755525	Logic	temporal logic specification of distributed systems	1981	5.325925767390708	5.863044199921367	1755552
1755649	PL	declaratively solving google code jam problems with picat	2015	4.43862514456327	6.870762019838224	1755676
1755786	NLP	parsing schemata for practical text analysis	2010	5.570544345466613	6.566289454390205	1755813
1755929	Logic	ttt2 with termination templates for teaching	2018	4.576728303494292	6.328080661876836	1755956
1756651	PL	dimensions in program synthesis	2010	5.84082260706306	6.417772522821673	1756678
1756777	HPC	a multicomputer software interface for parallel dynamic system simulation	1995	6.187243667667596	7.110716715886077	1756804
1757053	PL	grgen.net: a fast, expressive, and general purpose graph rewrite tool	2007	5.66146521870516	7.25934717468284	1757080
1757890	AI	an extension of prolog for object-oriented programming in logic	1990	5.639568013814413	6.941444857925576	1757917
1758019	Arch	automatic assembler source translation from the z80 to the mc6809	1984	6.202378789621031	5.934795066408071	1758046
1758254	PL	why functional programming matters	1989	5.33031966960559	7.002142683537213	1758281
1758374	PL	a parallel approach to compilation	1973	5.293271222126202	6.809540385245295	1758401
1758620	Networks	usc: a universal stub compiler	1994	5.7618188515806965	6.910832702709338	1758647
1758830	AI	a type-based approach to separating protocol from application logic - a case study in hybrid computer programming	2012	6.064464493498914	6.256630455664438	1758857
1759082	PL	type-safe covariance in c++	2004	4.910976657218262	5.8387013005599435	1759109
1759459	HPC	abstract data types in fortran 90	1996	6.0598722088905275	6.737617913346932	1759486
1759605	PL	run-time declaration elaboration	1984	6.035757551399676	6.485928851320248	1759632
1759627	PL	embedding an object calculus in the unifying theories of programming	2010	4.444042855054515	7.159394892458585	1759654
1759993	PL	verifying a plaftorm for digital imaging: a multi-tool strategy	2013	4.4673197030407685	5.8927068882255265	1760020
1760467	PL	implementing functional languages : s peyton jones and d lester prentice-hall uk (1992) 281 pp £22.95 isbn 0 13 721952 0	1994	4.930627354189756	6.583158290518117	1760494
1761164	SE	amphion/nav: deductive synthesis of state estimation software	2001	4.875971798829169	5.710185834766401	1761191
1761219	SE	program analysis tools	1998	6.051184447835271	6.838894583614643	1761246
1761775	PL	free and bound generics: two techniques for abstract data types in modular c	1984	5.700487850345023	6.897220446258991	1761802
1761813	Theory	temporal type constructors for computer music programming	2000	5.054129614917965	6.1815089241532215	1761840
1762621	PL	bidirectionalization transformation based on automatic derivation of view complement functions	2007	4.57130962328279	7.101196330792207	1762648
1763604	DB	formal data base specification - an eclectic perspective	1984	4.472637640218258	6.214794944427278	1763631
1764391	PL	gperf: a perfect hash function generator	1990	5.62621132188603	7.1252453961456474	1764418
1764658	NLP	a semantics for inheritance hierarchies with exceptions using a logic of preferential entailment	1989	4.84580715846363	6.210704042125113	1764685
1764720	PL	multibox parsers	1994	5.158382162845491	6.685245383898308	1764747
1765896	PL	object-oriented graphics	1987	4.51895576724184	6.658922422947782	1765923
1766433	Robotics	automatic translation of computer algebra systems' worksheets	2011	5.524167769570328	6.242635472222822	1766460
1766542	PL	prototype-based languages: from a new taxonomy to constructive proposals and their validation	1992	4.799838402273611	6.657411721838143	1766569
1767238	Arch	eliminate stack mechanisms in computer hardware?	1964	4.488881785913498	6.7750813241541685	1767265
1767247	EDA	application of a microprocessor to monitor a destructive test machine	1984	5.906558027214963	5.696462181368928	1767274
1767634	Arch	machine-independent pascal code optimization	1979	5.117244494273593	7.076428434279723	1767661
1767807	AI	what can software engineers learn from artificial intelligence?	1987	6.167271728767752	6.433386196456741	1767834
1768673	PL	programming language rigal as a compiler writing tool	1990	5.2006136281611886	6.9070530988824155	1768700
1768684	Logic	data structure shape inference and verification for oo programs	2009	5.559753706527978	6.740454521257143	1768711
1768810	AI	the vas formalism in vase	1996	6.276275601040621	6.449053621075066	1768837
1769059	AI	paragon: novel uses of type hierarchies for data abstraction	1984	4.613682790610378	6.965245925767244	1769086
1769369	SE	compilation integration: a solution for the challenge of developing and reusing ada software on different platforms	1992	6.2832454391146735	5.648809518839741	1769396
1769460	SE	an empirical comparison of modularity of procedural and object-oriented software	2002	5.921895125859377	7.290709554461117	1769487
1769479	PL	interfaces and specifications for the smalltalk-80 collection classes	1992	5.004200524541744	7.42150061229761	1769506
1769613	DB	scoped referential transparency in a functional database language with updates	1998	4.8941653636809646	6.1555596018799035	1769640
1770159	PL	an architecture for visualizing the execution of parallel logic programs	1991	5.330782422707432	6.514643143871635	1770186
1770757	Logic	parameterized data types in algebraic specification languages (short version)	1980	4.832423442920715	5.612803679941653	1770784
1770884	OS	how to run mathematica batch-files in background ?	2006	6.1127478424031745	6.045045938744867	1770911
1771941	Security	apl2 and the internet	2001	5.920211496747786	6.068630402793376	1771968
1773444	PL	conlan: a formal construction method for hardware description languages: language application	1980	6.216970820300942	6.331231375652216	1773471
1773507	PL	block structured object programming	1997	4.898752508144714	6.4727132051672385	1773534
1774382	EDA	visual simulation of texture/non-texture image synthesis	2000	4.723835051434011	5.916862414809746	1774409
1774710	SE	incremental and adaptive software systems development of natural language applications	2013	4.617321344962905	6.179692601111023	1774737
1775295	PL	an execution mechanism for nondeterministic, state-oriented programs based on a chart parser	1993	4.574908421895553	6.438348367058058	1775322
1776919	AI	a behavior-based analysis of modal problems	2013	4.671983774992994	5.8620874697286816	1776946
1777880	PL	a metal for c and pascal	2007	5.9344701950694905	7.3969095556564035	1777907
1778281	PL	incremental inheritance model for an oodbms	1997	4.957429139512638	7.008488973770326	1778308
1778594	PL	towards an application of update propagation on logic programs representing java source code	2013	5.23600186183083	6.998650433812628	1778621
1779223	PL	hardware description language applications: an introdiction and prognosis	1977	6.149382431447294	6.944905571566894	1779250
1779394	PL	towards a framework for concurrent design	1989	6.256229643445474	5.968730453873124	1779421
1779403	Robotics	a model for verifiable grounding and execution of complex natural language instructions	2016	4.900284953475876	6.550283384674239	1779430
1779524	PL	the programming language oberon-2	1991	4.779113916195179	7.001690181670509	1779551
1779720	PL	weak subtyping and genericity	2000	4.9776654153699855	7.418235241430143	1779747
1779773	PL	experimental personalized array translator system	1964	5.776106651289606	6.618690861196392	1779800
1780914	PL	error recovery for simple lr(k) parsers	1976	4.65689906886199	6.192649385944376	1780941
1781007	PL	relational level data structures for programming languages	1973	4.870394901039834	6.832484966356655	1781034
1781264	PL	program analysis: a toolmaker's perspective	1997	5.3637193107423045	7.30811389808565	1781291
1781398	PL	abstracting linked data structures using incremental records	1983	5.263147072000353	6.9754325564565525	1781425
1781825	AI	an agent-environment interaction model	2006	6.2532421984421305	6.088854243287349	1781852
1782226	AI	graphical representation of logic programs and their behaviour	1991	5.605306101976197	7.417209857448622	1782253
1782772	AI	analysis of agent programs using action models	1998	6.061966550597255	5.970776820335934	1782799
1783574	Theory	recursive algorithm with c++ program for floating-point arithmetic	1999	5.209131344783084	6.0010870315449525	1783601
1783971	SE	expressing aspectual interactions in design: evaluating three aom approaches in the slot machine domain	2014	6.2510073168784555	7.360845047366612	1783998
1784309	PL	global analysis and optimizing compilation of constraint solving algorithms in constraint logic programming	1997	4.409447846894516	5.8030107866002805	1784336
1784511	DB	concept as a generalization of class and principles of the concept-oriented programming	2005	5.56504284297593	6.456497992415402	1784538
1784783	DB	generic, type-safe and object oriented computer algebra software	2010	6.098003268671024	7.432553244893844	1784810
1785499	Theory	dynamic storage allocation systems	1967	6.129776857285881	5.859013221586126	1785526
1785573	NLP	syntax-directed translation of organic chemical formulas into their two-dimensional representation	1976	4.799456983723376	5.899307552808832	1785600
1786476	NLP	parsing expression grammar as a primitive recursive-descent parser with backtracking	2007	4.634689093754253	6.533249401730432	1786503
1786920	Theory	letters to the editor: inversion of power series	1961	4.506938969739384	6.414278086629487	1786947
1787491	AI	part-selection triptych: a representation, problem properties and problem definition, and problem-solving method	2000	5.096190131174364	5.666542254020548	1787518
1787609	PL	parlog and its applications	1988	5.062241879855093	6.647562794130129	1787636
1788038	Logic	a knowledge-based code generator generator	1977	5.818297684792457	6.079396408828381	1788065
1789325	PL	extensible algebraic datatypes with defaults	2001	5.214788221232754	7.363996433334853	1789352
1790186	Logic	dispel: a run-time debugging language	1981	5.912809780022122	7.176190293229375	1790213
1790835	Logic	xml static analyzer user manual	2008	4.6999002428791234	7.055400155369017	1790862
1791244	Logic	the kiv system: systematic construction of verified software	1992	5.341900483391684	6.210844389189098	1791271
1791292	HCI	vimer: a visual debugger for mercury	2003	6.0025307951161135	7.2815985910313215	1791319
1791321	PL	a lightweight approach to datatype-generic rewriting	2010	4.403180994632352	7.400231894894095	1791348
1791907	Theory	efficient evaluation of the area under the normal curve	1987	5.53015973833483	6.449117528514504	1791934
1792184	PL	an object oriented extension to apl	1987	5.4406163398238965	6.9206415144877935	1792211
1792446	SE	the use of ada in reactive systems: a 3-dimensional model	1991	5.922583205480801	5.7017073677248975	1792473
1792544	PL	inside the c++ object model	1996	5.541742795180206	7.324494429786722	1792571
1792553	DB	integrating efficient records into concurrent constraint programming	1996	4.714462044257121	6.784006164752567	1792580
1793342	PL	introduction to algebraic specifications based on the language act one	1992	5.318615946749423	6.9600958157299635	1793369
1793930	HCI	organizing programming knowledge into syntax-directed experts	1986	5.264548550108955	6.760570750322538	1793957
1795064	PL	compiling embedded languages	2003	4.967219672539435	7.206890206117135	1795091
1795385	PL	@java: bringing a richer annotation model to java	2014	5.8380154709691965	7.2299042050648765	1795412
1795403	PL	the use of abstract data types to simplify program modifications	1976	5.315055466006613	6.834742134556166	1795430
1795450	Web+IR	pellint - a performance lint tool for pellet.	2008	5.2197674322687515	5.8167161906070195	1795477
1795615	AI	a mapping mechanism of nl sentences onto an spn state machine for understanding purposes	2014	6.1274119979609525	6.532060312301692	1795642
1796174	PL	tailoring oo analysis and design methods - panel session	1995	4.753749854632863	6.611042214811305	1796201
1796536	PL	a neural net compiler system for hierarchical organization	2001	5.067481542562329	6.714342898526193	1796563
1796643	Logic	formalizing hybrid systems with event-b	2012	4.377362539381357	6.183041220851584	1796670
1797226	PL	an implementation of an operating system kernel using concurrent object-oriented language abcl/c+	1988	5.860039447484351	7.026679290843822	1797253
1798293	PL	macro instruction extensions of compiler languages	1960	4.600016290311847	6.8118790624158825	1798320
1798594	DB	a reflective object oriented concurrent language abcl/r	1989	5.861775871891514	6.707648758706378	1798621
1798747	Robotics	a dynamic recursive approach for autonomous inspection and reverse engineering	1994	6.281301829130858	5.737303337764157	1798774
1799062	Logic	design frameworks : a basis for conceptual understanding and reuse	1994	5.2962384553529365	5.80716253915051	1799089
1799958	SE	generating provably correct algorithmic programs from formal specifications	2010	5.953078815683953	7.276340876896445	1799985
1800180	PL	an application-oriented programming language for sequential machine studies	1979	4.507799943506505	7.166028271726785	1800207
1800664	NLP	y+: a yacc preprocessor for certain semantic actions	1988	5.489222713150056	6.918785245684187	1800691
1800695	Robotics	expressing homotopic requirements for mobile robot navigation through natural language instructions	2016	5.3425369129246425	5.9788729849389295	1800722
1800779	HCI	expert programmers re-establish intentions when debugging another programmer's program	1990	6.183098310294014	5.561112488433367	1800806
1800898	PL	grammar programming in txl	2002	5.644930254565383	6.536895398064166	1800925
1801696	PL	the reflexive cham and the join-calculus	1996	5.0870373709702035	7.412071115198598	1801723
1801972	PL	programming with asn.1 using polymorphic types and type specialization	1994	5.7797339251607385	6.948885712611481	1801999
1801999	Theory	parallelism in mupad	1997	5.1545042245467245	6.749975271082243	1802026
1802099	PL	a lightweight abstract machine for interaction nets	2010	5.061277167965086	6.922106530018523	1802126
1802179	SE	inferring semantic interfaces of data structures	2012	4.490634374392287	7.095698294536613	1802206
1802431	AI	integrating programming by example and natural language programming	2013	5.145117307889719	6.415992610040476	1802458
1802528	PL	a practical agent programming language	2007	6.228967112342988	6.574218546893643	1802555
1803011	HPC	forall: an extensible fortran system for conversationally accessing subroutine libraries	1980	5.7712276364469375	6.540160175639977	1803038
1803131	PL	a denotational model for the integration of concurrent, functional, and imperative programming	1993	4.6526745657744	6.438616133093264	1803158
1803565	PL	a prolog meta-interpreter for partial evaluation and its application to source to source transformation and query-optimisation.	1984	4.39956356818514	5.72977064380292	1803592
1803730	SE	"""preparing relational algebra for """"just good enough"""" hardware"""	2014	5.531818658219163	7.068803841820179	1803757
1803917	Web+IR	tei and lmf crosswalks	2015	5.3014954621725625	6.0247653097068525	1803944
1804159	NLP	dependency analyser configurable by measures	2002	4.988141228768777	6.359230491675008	1804186
1805223	HPC	a measure of information reuse to compare distributed protocols	1998	5.134769558002568	5.876232144800063	1805250
1805565	SE	implementing constructor calls with parameters in ada 95	1998	5.136996271561283	6.981012571574878	1805592
1805708	PL	vispar: visualising dataflow graphs from the par monad	2017	5.5980972054659786	6.691816889044318	1805735
1805733	SE	parameter passing mechanisms and run time data structures	1981	4.636118698030381	7.144176561918914	1805760
1806762	SE	maptool - supporting modular syntax development	1996	4.982171240855927	6.593233642371294	1806789
1807439	Logic	on implementation problems of shared abstract data types	1982	5.818402347913008	7.118569437134111	1807466
1807781	Robotics	economical decentralized safe-diagnosis architecture for discrete-event systems	2018	5.165109795057318	6.131191215284674	1807808
1808288	PL	emerald: a general-purpose programming language	1991	5.792254234069731	7.292287627911166	1808315
1808341	Vision	functional programming, the ieee floating point standard and apl	1987	4.400245218820556	6.621780434372472	1808368
1808355	PL	some aids for program documentation	1977	6.2071154664153925	6.171533619446177	1808382
1809140	Arch	basic constructs of the sim operating system	1983	5.914138551001398	6.450889487543435	1809167
1810166	NLP	table based parsing for rna	2009	4.485160309806869	6.382863092505065	1810193
1810372	SE	using lightweight inference to solve lightweight problems	2009	5.216462533139755	6.8901726328262765	1810399
1810419	PL	lenses for web data	2013	4.965468219265135	6.3506114395851005	1810446
1810743	Logic	automating verification of event-b models	2016	4.924860126523009	7.432319769058129	1810770
1810764	PL	efficient parsing with parser combinators	2018	4.508307296590799	7.1901081631604455	1810791
1811830	SE	a denotational (static) semantics method for defining ada context conditions	1980	4.709321697282845	7.115676037515665	1811857
1812945	PL	from obj to ml to coq	2006	5.398947852037599	7.287875580853561	1812972
1813095	PL	a technique for finding storage allocation errors in c-language programs	1982	5.758018409708607	6.419090347183532	1813122
1813241	AI	symbolic data flow analysis for detecting deadlocks in ada tasking programs	2000	5.046470980170862	6.134512118466505	1813268
1814109	PL	type-safe run-time polytypic programming	2006	4.486911122252077	6.854841761907423	1814136
1814243	Logic	a type-passing approach for the implementation of parametric methods in java	2003	4.922463609342777	7.236556000602013	1814270
1814409	HPC	compositionality results for different types of parameterization and parameter passing in specification languages	1993	4.982490381391429	6.012412871166927	1814436
1815706	AI	golog speaks the bdi language	2009	6.04449610134009	6.705226650736621	1815733
1816813	PL	learning concurrent programming: a constructionist approach	1999	6.306066553242376	7.032025695741602	1816840
1816848	PL	object-oriented description of graph data structures	2007	5.355756585422459	6.50515258803204	1816875
1816942	HPC	measuring source code similarity using reference vectors	2006	5.892649409032607	5.826157454202372	1816969
1816968	PL	dynamic programming in a pure functional language	1993	5.090955198314116	7.209049595814222	1816995
1817049	SE	state diagram approach for functional testing of control section	1981	6.163072925181188	5.6443156623173545	1817076
1817381	Security	policy framings for access control	2005	4.788639511821465	6.125395693632336	1817408
1818819	AI	use of snobol4. as an interactive language for artificial intelligence research	1973	5.8136948053117825	6.528110661496255	1818846
1818905	PL	a methodology for writing class contracts	2005	4.6509380504558715	7.202957391343107	1818932
1819136	PL	experience from the standardization of the simula programming language	1976	6.252267509791607	6.383517741415488	1819163
1819535	PL	rie, a compiler generator based on a one-pass-type attribute grammar	1995	4.494494048955676	6.658427562521496	1819562
1819987	DB	compile time constraint solving in a constraint database system	1994	5.214731372282611	5.844310434013129	1820014
1821906	SE	towards a verified minisml/secd system	1993	5.135947114710787	7.115208439800319	1821933
1821995	PL	teaching oop in c++ using an artificial life framework	1997	6.229633229142883	6.295943431259287	1822022
1822307	PL	generic record combinators with static type checking	2010	4.5823266130357565	7.389122462882552	1822334
1822347	EDA	program composition and optimization: autotuning, scheduling, metaprogramming and beyond, 09.05. - 12.05.2010	2010	5.987117610233897	5.6170990832746615	1822374
1823310	PL	error recovery in parsing relational languages	1998	5.569674189766438	6.738361746054917	1823337
1823826	Logic	formal specification and verification of osi protocols	1996	6.0118433795803785	5.597361960524634	1823853
1824102	PL	truly abstract interfaces for algebraic data types: the extractor typing problem	2018	4.7636682478769234	7.367620692802037	1824129
1824564	Logic	the definition and use of data structures in reduce	1976	4.8091154622384495	6.558576668228068	1824591
1824814	PL	expressive genetic programming: tutorial: 2012 genetic and evolutionary computation conference (gecco-2012)	2012	5.189509883970941	6.4429340025004604	1824841
1825095	PL	jscoq: towards hybrid theorem proving interfaces	2016	6.183329279580399	6.680161684960622	1825122
1825359	NLP	formalisation of orm derivation rules and their mapping into owl	2016	6.243998617494117	6.001615179981644	1825386
1826182	Arch	patch: analog computer patching from a digital simulation language	1971	5.863573670261173	5.708315998435327	1826209
1826927	Vision	madura: a language for learning vision programs from examples	1999	5.331647612426556	6.615188922075277	1826954
1827338	PL	the architecture of inference from smt to etb	2012	4.718911482158952	6.574615788668552	1827365
1827667	Logic	bundle event structures: a non-interleaving semantics for lotos	1992	4.687888423677154	5.6536099203067005	1827694
1827692	PL	formal semantics of programming languages: vdl	1981	5.771236085003103	6.6157185577857085	1827719
1828137	PL	the design space of type checkers for xml transformation languages	2005	4.464131783538004	6.900882930122592	1828164
1828141	Logic	symbolic program execution using the erlang verification tool.	2000	5.908950922946803	6.140558342094763	1828168
1828383	Robotics	teaching kinematics and dynamics of multibody mechanical system using the object oriented language modelica	2009	6.259161728815519	6.179927102959469	1828410
1828677	AI	recursive temporal namespaces	2008	4.3857819039689545	5.924892801011961	1828704
1828860	NLP	a note on the parsing of complete vhdl-2002	2007	6.2591067628099015	6.788665703349569	1828887
1828977	Theory	abstract data structure recognition	1994	5.4462746560581206	6.161675623724147	1829004
1829742	AI	rapt : a program transformation system based on term rewriting	2006	4.756164272884694	7.293536618198331	1829769
1830131	AI	intelligent network control using object-oriented term-rewriting	2001	6.1986270601373645	6.52613903236886	1830158
1830603	AI	automated derivation of program control structure from natural language program descriptions	1977	6.096496933906252	5.9363667728154805	1830630
1831005	Theory	design for testability of communication protocols based on sdl language	1997	5.980347836865339	6.198818191799121	1831032
1831432	EDA	synthesis and control of asynchronous and distributed systems	2007	5.253559018991606	6.0769886832153786	1831459
1831895	PL	profunctor optics: modular data accessors	2017	4.5795221558910235	7.006896116713189	1831922
1832282	PL	a programming language with a pomdp inside	2016	4.381388235699995	5.908782609359752	1832309
1832602	Logic	efficient flow-sensitive pointer analysis on full-sparse memory ssa	2015	5.0026281478676005	5.7210808836931175	1832629
1832857	PL	the racket manifesto	2015	5.508505596242156	6.8938944943106675	1832884
1833563	Visualization	a little history and a fortran 90 summary	1996	6.1161002164365375	6.069793947886881	1833590
1833822	AI	detection of dynamic execution errors in ibm system automation's rule-based expert system	2002	5.1458450873196115	6.9301044726813865	1833849
1834437	NLP	lazy recursive descent parsing for modular language implementation	1990	4.694122689877244	6.683912609592344	1834464
1834983	PL	row types for delta-oriented programming	2012	4.862575133289901	7.332711343005474	1835010
1836074	AI	amalgamated graph transformations and their use for specifying agg - an algebraic graph grammar system	1993	6.028983732436527	6.7678576510256825	1836101
1836147	PL	a generic recursion toolbox for haskell or: scrap your boilerplate systematically	2006	5.093530035795578	7.241871624666988	1836174
1837136	PL	the case against pascal as teaching tool	1982	5.4035123870273685	6.577370639032961	1837163
1837449	NLP	how graphics could be simplified in apl	1987	4.741754828812673	6.063580157541769	1837476
1837933	DB	program development and specification refinement in the schema calculus	2000	5.008979287860838	6.821889243983513	1837960
1838230	Robotics	human-intelligent system shared control strategy with conflict resolution	2018	6.203302399569262	6.346646187149704	1838257
1838751	PL	an empirical study of apl programs	1977	5.580178138435749	6.830764933291914	1838778
1838821	PL	a comparison of cobol, fortran, pl-i and spitbol	1977	5.538157952113117	6.321822393769202	1838848
1839737	EDA	cosynthesis of embedded systems using coloured interpreted petri nets	1996	5.9867257492343375	5.686299101250612	1839764
1839819	AI	reconfigurable, retargetable bignums: a case study in efficient, portable lisp system building	1986	5.383428578139477	6.494765158408144	1839846
1840231	NLP	application of the direct memory access paradigm to nl interfaces to knowledge-based systems.	1988	5.855967389481405	5.679803812937782	1840258
1840920	PL	an experiment in partial evaluation: the generation of a compiler generator	1985	4.449345159573498	7.094237665703624	1840947
1840939	PL	a syntactical chart of algol 60	1961	4.589535528000264	6.296929269909993	1840966
1841341	SE	tracing occurrences of patterns in symbolic computations	1981	5.957342524208782	6.858060536898116	1841368
1841401	Embedded	verification of real-time systems through lazy approximations	2004	4.4399568270756005	6.498678142936805	1841428
1841499	PL	higher-order hierarchies	2003	5.19869084221222	7.253994235675363	1841526
1841773	PL	an object-oriented specification for compiler	1992	5.61145380737288	6.844605412630662	1841800
1844061	DB	report to x3 ddl - external versus internal format	1969	6.086103456612957	5.908261352847117	1844088
1844763	Graphics	validating the black point compensation standardization	2013	5.686222435559922	6.313245612909022	1844790
1845139	PL	qinl: query-integrated languages	2015	5.560456367401262	6.678596458255964	1845166
1847282	SE	ratsno-an experiment in software adaptability	1977	6.1845025492437635	7.148777622477742	1847309
1847943	PL	the sufficiently smart compiler is a theorem prover	2018	5.022094377573912	7.3536684809871575	1847970
1848407	DB	style analysis of pascal programs	1983	5.118701502423186	6.714815293840858	1848434
1848504	Logic	designware: software development by refinement	1999	5.44677259887405	6.875172245626858	1848531
1848992	NLP	development and optimization of a text compression/decompression algorithm	1979	5.53165059029666	7.204585520233325	1849019
1849486	PL	experiments with a heuristic compiler	1963	5.110807102171816	5.898798158682501	1849513
1849753	NLP	oops: discovering ll(1) through objects	2006	5.344090868959035	6.633988286951992	1849780
1850008	PL	on the design of a java computer algebra system	2006	4.583105309391553	7.213305525462397	1850035
1850501	Theory	the grammar of code switching	2014	5.781427353106143	5.869755734912817	1850528
1850867	PL	type-specialized staged programming with process separation	2009	5.794133523534738	7.346890314418715	1850894
1851403	DB	the semantics of datalog for the evidential tool bus - (extended abstract)	2014	4.590514641670884	6.4535881573413825	1851430
1851512	Logic	apron: a library of numerical abstract domains for static analysis	2009	6.0165022359343805	7.06003799672204	1851539
1852200	SE	software development in relation algebra with ampersand	2017	5.918984533893855	6.480374244251853	1852227
1852370	PL	a verification condition visualizer	2014	6.0990382171089434	6.198365137429558	1852397
1854355	HCI	a plea for readable pleas for a readable prolog programming style	1991	4.771321611612211	6.665614069382236	1854382
1854365	HPC	advances in parallel and distributed computing models - apdcm	2009	4.588618858735091	6.110936118458369	1854392
1854551	Logic	a simple abstract machine to execute supercombinators	1986	5.49397384791058	6.060783144448527	1854578
1854650	PL	extending feathertrait java with interfaces	2008	4.405307088041369	7.395682081255503	1854677
1854731	Arch	level-independent notation for microcomputer programs	1981	6.032153779788711	5.6679266171041744	1854758
1854735	PL	data-driven executable language model	2009	5.998319398764321	7.223346175289314	1854762
1855142	Robotics	on the rough number computation and the ada language	2005	4.602508995093549	6.614762873115474	1855169
1855232	PL	using subprograms as the main primitive in teaching ada (abstract only)	1985	4.873734686325866	6.467014630391742	1855259
1855251	PL	eunit: a lightweight unit testing framework for erlang	2006	5.919833134707267	7.442558684209223	1855278
1855418	Crypto	deriving self-stabilizing protocols for services specified in lotos.	2003	5.589092311973578	5.764208524668356	1855445
1855470	SE	a specification schema for indenting programs	1983	5.0924048116555385	6.510626400862793	1855497
1856345	PL	an overview of f-oml: an f-logic based object modeling language	2010	4.527497435614709	7.031311439177214	1856372
1856870	SE	an abstract data-type technique for scientific software	1987	5.610895206915157	6.567896807548076	1856897
1857659	PL	on creation, equality and the object model	1999	5.164955244741178	6.842750498873823	1857686
1857796	DB	"""konrad zuse's plankalkül: the first high-level, """"non von neumann"""" programming language"""	1997	4.460808602511814	7.026886768990778	1857823
1858162	PL	dynamic neural program embedding for program repair	2017	5.698571840772092	7.168803040194954	1858189
1858304	PL	predicate logic hacker tricks	1985	4.717088666286144	6.350109090227373	1858331
1858849	PL	hybrid backward slicing algorithm producing executable slices for prolog.	1995	4.84095332447906	6.085705643694389	1858876
1859610	PL	the towers of hanoi from a different viewpoint	1985	4.4851933945404925	5.581708611151796	1859637
1861413	EDA	meta vhdl for higher level controller modeling and synthesis	1991	5.917993175250144	5.638893351689288	1861440
1861573	PL	"""further comments on """"a correct and unrestrictive implementation of general semaphores"""""""	2000	5.665556631170277	6.5680285490721015	1861600
1861911	PL	metalevel building blocks for modular systems	1994	5.5403085362084035	7.205360770343717	1861938
1861969	Logic	the development of tools for verification and validation of communication protocols	1982	6.222620402505172	5.535495574843355	1861996
1861985	EDA	formal verification of timing conditions	1990	5.444549526758717	6.560757747126565	1862012
1862123	PL	a gentle introduction to multi-stage programming, part ii	2007	5.52960403626067	7.1912102160759925	1862150
1862271	SE	a constructive set theory for program development	1988	4.8930612789412375	6.315412448225247	1862298
1863715	Theory	proposed american standard: one-inch perforated paper tape for information interchange	1964	4.889913523589627	6.135720683558693	1863742
1863753	PL	first-class data-type representations in schemexerox	1993	4.808883961963072	7.269513662273629	1863780
1864677	Crypto	formal models for analyzing security protocols: some lecture notes	2016	5.564903197961613	5.805801708396318	1864704
1865039	PL	a programming language for finite state transducers	2005	4.901768124287979	6.397036761350348	1865066
1865215	PL	aspects of implementing clu	1978	5.2014123271046815	6.624331225562216	1865242
1865359	Robotics	colored petri net model for discrete system communication management on the european rail traffic management system (ertms) level 2	2014	6.303388199487145	6.171319489974801	1865386
1865683	NLP	a programming language for artificial development	1995	5.964956021051942	6.205253941323197	1865710
1866445	AI	multiple exists from a loop using neither go to nor labels	1974	4.421871574114665	6.427123136056799	1866472
1866504	Visualization	the history of fortran i, ii, and iii	1998	5.635007311276115	6.3455257941294825	1866531
1866993	PL	regulus: a general purpose macro processor based on regular expressions part one	1977	5.445225556200288	6.6130767692423404	1867020
1867238	PL	modeling in prolog	1988	4.878913252248748	6.108016209156653	1867265
1868609	PL	software communication mechanisms: procedure calls versus messages	1982	4.634070271978406	6.784817576461397	1868636
1868673	PL	reuse through inheritance: a quantitative study of c++ software	1995	6.209060132389808	6.4766023920987665	1868700
1869198	Web+IR	a generic module system for web rule languages: divide and rule	2007	6.268915485528656	6.837658299452759	1869225
1870376	PL	a generator for language-specific debugging systems	1987	5.558359549366344	7.314850488384713	1870403
1871060	PL	algorithm 399: spanning tree	1970	4.918289757029117	6.300973408757594	1871087
1871648	Logic	towards agent-oriented smart office based on concurrent logic languages	1998	6.171440719033486	6.401953215037332	1871675
1873266	DB	thémis: a database programming language with integrity constraints	1993	4.431586956449369	5.602619922618538	1873293
1873275	SE	exception handling-a static approach	1984	4.510218177993017	7.20302155515088	1873302
1873496	PL	a typeful integration of sql into curry	2017	5.296822589598472	6.58135243377234	1873523
1873522	SE	a program for animating ccs specifications	1994	4.679708479308607	6.376478120255573	1873549
1873687	HCI	generic performance metrics for continuous activity recognition	2011	4.494398140606321	5.541716779575538	1873714
1873715	PL	type-checking revisited: modular error-handling	1993	4.567347189218356	7.2388744871147725	1873742
1873926	SE	exploring specifications with mathematica	1995	5.925636462763031	5.958186733182352	1873953
1874142	Logic	algebraic specification and formal methods for program development: what are the real problems?	1990	6.091240543811697	6.4262376226160125	1874169
1874155	PL	a library writer's guide to shortcut fusion	2011	5.892226287553482	6.800369122166492	1874182
1874861	PL	static type inference for the q language using constraint logic programming	2012	4.576772941268422	7.411633446771061	1874888
1875227	Logic	tabular verification and refinement	2002	4.381628227157672	6.67691077748013	1875254
1875232	AI	membrane computing	2013	4.751511126571351	5.662378021731005	1875259
1875624	PL	a survey of concurrent metatem - the language and its applications	1994	5.14265416050919	6.6568562254604995	1875651
1875805	NLP	compiler generation, from compiler descriptions to efficient compilers	1983	5.533821023682351	5.553685697777016	1875832
1876117	Logic	introducing finite automata in the first course	1988	4.7887867318675825	6.364214945433656	1876144
1877001	ML	grammar-based automated music composition in haskell	2013	5.53899415187889	5.634017069546669	1877028
1877527	SE	an introduction to z and formal specifications	1989	4.882931656987087	6.763376864500327	1877554
1877727	Logic	oop in languages providing strong, static typing (panel)	1992	5.8419920677932975	5.609786125784359	1877754
1877737	AI	on the input language of asp grounder gringo	2009	4.6752497169468965	5.996386961643193	1877764
1877792	PL	translator writing systems: where do they now stand?	1980	5.902858893194227	5.9647493754978775	1877819
1877882	PL	using persistence to support incremental system construction	1993	5.171899237715194	7.350357568724951	1877909
1878294	SE	statistical approach to increase source code completion accuracy	2017	6.123415439253856	6.522484953011162	1878321
1879120	PL	fast escape analysis for region-based memory management	2005	4.907825212973137	5.937807823241685	1879147
1879151	PL	an event-driven compiling technique	1979	4.883721410440419	6.340700928208549	1879178
1879183	Robotics	robustness in geometric computations	2001	5.691949703338441	5.567019472292999	1879210
1879697	NLP	generating flex lexical scanners for perl parse: : yapp	2012	5.942782802762125	6.591358420614798	1879724
1879797	PL	compilation of nonprocedural specifications into computer programs	1983	5.711282374434079	6.878413024753088	1879824
1879894	NLP	the theoretical basis of mimo	1990	4.677754693826602	5.732526484660862	1879921
1880166	DB	detectors: encapsulating constraint maintenance in object-oriented databases	1993	5.42821473532178	7.406729966075798	1880193
1880242	HPC	optimizing compiler for engineering problems	2008	6.181549316244147	5.978682866558617	1880269
1880251	PL	a method for overlapping and erasure of lists	1960	4.57574372875649	6.7391426313365566	1880278
1880375	HPC	analysis of parallel lisp programs based on a trace mechanism	1991	5.806385530329425	6.607743387576427	1880402
1881772	PL	bounded inputs for logic programming	2013	4.758021638641914	6.84461136766516	1881799
1882103	SE	static ownership inference for reasoning against concurrency errors	2009	4.470602617059289	6.938894285762569	1882130
1882803	HCI	asp: from application development to syntax extensions	2004	5.116852662371225	6.130675737296376	1882830
1883210	PL	feldspar: application and implementation	2011	5.686360658019503	6.808661305693017	1883237
1884546	PL	introduction to the galaxy language	1989	5.77940326354262	6.415635011772388	1884573
1884622	SE	use of formal specifications for protocol design, implementation and testing	1984	6.043489674867022	5.660210553588741	1884649
1885203	NLP	types for the language designer (abstract)	1993	5.009480882197776	7.06644252531262	1885230
1885437	Logic	rvhyper: a runtime verification tool for temporal hyperproperties	2018	4.964815862002639	5.740176009541081	1885464
1885618	SE	special issue on testing, analysis and debugging of concurrent programs	2015	5.821590900228753	5.887080717315094	1885645
1885968	Graphics	introduction to sdl-92	1996	6.034210484255147	6.789143402986727	1885995
1887273	PL	a case study of a new code generation technique for compilers	1977	4.742621717772553	7.079734404788676	1887300
1887594	DB	a module system for a programming language based on the lf logical framework	1998	4.947469962561342	6.6640326279299344	1887621
1887716	PL	a*: a language for implementing language processors	1994	6.2034901271296965	6.581542230159903	1887743
1887723	Arch	integrating modes and subtypes into a prolog type-checker	1992	4.692616795406704	5.882974272869929	1887750
1888149	SE	typing the specialization interface	1993	5.57421100604356	7.252038916533393	1888176
1888282	Theory	a cognitively-based methodology for designing languages/environments/methodologies	1984	6.203902760568342	6.446892021444912	1888309
1889123	SE	language characteristics programming languages as a tool in writing system software	1972	6.167145310767643	5.6930632994053925	1889150
1889528	PL	type-indexed data types	2004	4.391196730904813	6.874648546408349	1889555
1889587	DB	icruiser: an improved approach for concurrent heap buffer overflow monitoring	2014	5.597723425978393	5.716785261873175	1889614
1889907	PL	semi-intelligent backtracking of prolog based on static data dependency analysis.	1985	4.582351219635357	5.5372040826952444	1889934
1891032	PL	haskell server pages - functional programming and the battle for the middle tier	2000	6.12756335459033	6.626557185498674	1891059
1891247	OS	intelligent i/o: rule-based input/output processing for operating systems	1991	6.112973285548545	6.378595399709365	1891274
1891282	Robotics	behaviour-oriented commands: from distributed knowledge representation to real-time implementation	1996	6.2398786129694415	6.103966324185102	1891309
1891414	PL	libraries for generic programming in haskell	2008	5.938568800133983	6.804849934654867	1891441
1891675	SE	a general purpose digital simulator and examples of its application: part i - description of the simulator	1964	6.278106290210689	6.075953373420023	1891702
1891895	PL	executable specifications with quantifiers in the fase system	1986	4.4684019334375975	7.215657717652787	1891922
1891993	PL	incrementalization across object abstraction	2005	5.747854586495554	7.438951543860711	1892020
1892114	EDA	verischemelog: verilog embedded in scheme	1999	5.938064960788192	7.316397173486669	1892141
1892619	PL	extending the tptp language to higher-order logic with automated parser generation	2006	4.5769503504325835	7.2244437139179984	1892646
1892773	Logic	simulation of discrete systems using gpss-fortran	1982	6.064950683705107	5.9833224384402355	1892800
1892931	PL	safe object composition in the presence of subtyping	2005	4.722908145630863	6.988169908615386	1892958
1893011	PL	an assertion language for constraint logic programs	2000	5.119141617703309	7.207704288231543	1893038
1893101	PL	drscheme: a programming environment for scheme	2002	5.443091151479614	6.907314331747607	1893128
1894032	Theory	wait-free computing	1995	5.090046025181938	6.0862344418736365	1894059
1894119	SE	is block structure necessary?	1981	4.893029704602057	6.580364164184741	1894146
1894920	PL	the linked class of modula-3	1988	5.161718922831584	7.145493645686433	1894947
1895703	Arch	an application of file-comparison algorithms to the study of program editors	1980	6.271759470599716	6.015291290891862	1895730
1896143	Logic	human competitive security protocols synthesis	2006	5.7047967019240735	5.815203945966482	1896170
1896448	SE	pbasic-a verifier for basic	1980	5.664967460204935	6.330523430256248	1896475
1896553	SE	verifying abstract data types with snobol4	1982	4.402000278372502	6.863694800065433	1896580
1896996	Robotics	modular design of fuzzy controller integrating deliberative and reactive strategies	1996	6.1137992086681034	5.805192486965423	1897023
1897236	PL	pascal-clarifications and recommended extensions	1979	5.87771503160326	6.378411799049081	1897263
1897717	Robotics	the poplog program development system	1984	6.054082347800058	6.289592752753919	1897744
1897768	PL	views, data abstraction, and inheritance in the fugue data model	1988	6.093384027609303	6.984593413092266	1897795
1898148	Theory	character manipulation in 7090 fortran	1963	5.401364092734594	6.346391862665384	1898175
1898192	PL	a mode analyzing algebraic manipulation program	1974	5.054357871432098	6.805094906336588	1898219
1898444	AI	the kr system dlv: progress report, comparisons and benchmarks	1998	4.869105044447129	6.0046978528349735	1898471
1899695	Logic	dsolve: safety verification via liquid types	2010	5.260240976318272	7.268327903557893	1899722
1899930	Arch	n-expression implementations for integrated symbolic and numeric processing	1987	4.6183970480556376	6.676054340444628	1899957
1900796	AI	integrating rule-based ai tools into mainstream game development	2018	6.2249388072490275	6.645086656222276	1900823
1901177	Theory	real time languages for process control	1972	5.988410587705354	6.354066943516416	1901204
1901251	Embedded	fac: a functional apl language	1986	4.479529947854143	6.414464922215578	1901278
1901639	PL	the procedures of the cade-13 atp system competition	1997	5.861880942343304	5.982128282244162	1901666
1902235	PL	the case for simplified languages	1985	5.578445681856632	5.790921558646518	1902262
1903209	Logic	the synthesis problem	2013	5.969852506016991	6.034628255809247	1903236
1904780	SE	a method for translating automatically statechart models into vhdl code	1995	5.988720422649442	6.370446746019563	1904807
1905004	PL	logic and the structure of space - towards a visual logic for spatial reasoning	1993	4.86446024251763	5.535596852301521	1905031
1905369	PL	inductive programming: a survey of program synthesis techniques	2009	4.858579617027425	6.044479194780218	1905396
1906724	PL	aprol: a hybrid language	1993	5.247004091760968	6.787092965381483	1906751
1907030	Embedded	tuning an algebraic manipulation system through measurements	1974	5.934135454617263	6.307734715686505	1907057
1907124	Logic	program development in the constructive set theory tk	1989	4.3983967528204175	6.320140876978205	1907151
1907441	PL	lucx: lucid enriched with context	2005	4.450649814893388	7.29687642115933	1907468
1907687	DB	an empirical study on encapsulation and refactoring in the object-orientated paradigm	2008	5.547845460664434	7.256122731578812	1907714
1907810	PL	alglib, a simple symbol-manipulation package	1985	5.629866032746907	5.877711628789379	1907837
1907905	Crypto	form facts	2010	4.4569791334945	6.69581958792853	1907932
1908250	PL	implementing data abstractions and monitors in ucsd pascal	1983	5.8206055678915884	6.619428497960473	1908277
1908434	AI	clarifications to the symbolic mode in reduce	1983	4.616393207375045	6.195120374770843	1908461
1908767	PL	abcl/f: a future-based polymorphic typed concurrent object-oriented language- its design and implementation	1994	5.5936715969850885	5.715570221272331	1908794
1908977	Logic	on expressiveness of tctlδh for model checking distributed systems	2016	5.1748237522195355	5.72268822992413	1909004
1909306	PL	the compilation of sl, a set-based logic language for generic parallel architectures	1997	4.5027312079510775	6.1398111111238896	1909333
1909321	AI	partial synthesis of sentences by coroutining constraints on different levels of well-formedness	1992	4.495041772192513	6.4586300649245825	1909348
1909328	NLP	an operator precedence parser for standard prolog text	1996	4.673173108704233	6.543169455648155	1909355
1909499	PL	self: the power of simplicity	1987	4.8836825613385635	7.077253277704528	1909526
1909646	Logic	jack - java constraint kit	1999	5.700022917119032	7.002428806213295	1909673
1909709	SE	a contextual analysis of pascal programs	1982	5.68250506729594	6.461264534734211	1909736
1910434	PL	augmenting computer music with just-in-time compilation	2009	6.167523619590247	6.490915259164394	1910461
1910521	Logic	teaching automata theory with jflap	1999	4.799808953715009	6.13632811405016	1910548
1912691	SE	efficient and accurate software pattern detection	2006	5.833264476086903	7.3308366365165725	1912718
1913069	SE	a systematic approach to connecting standalone theorem provers to formal development environments	2006	5.131665533899864	7.410055540601809	1913096
1913344	DB	toward a mathematical theory of graph-generative systems and its applications	1976	4.499882650993002	5.57491738262588	1913371
1913672	AI	modules as policy-based intentions: modular agent programming in goal	2007	6.1246142578101574	6.9210746443913305	1913699
1913780	PL	control flow aspects of semantics-directed compiling	1983	5.137703316848857	6.888182162978403	1913807
1914190	Robotics	a prolog debugging system is an open system	1990	5.586446365238554	5.5627694071959635	1914217
1915083	PL	mcorba: a corba binding for mercury	1999	4.6936037298673305	7.0233148727112225	1915110
1915367	PL	bellman's gap: a declarative language for dynamic programming	2011	4.976213786793398	6.0756252640231825	1915394
1915721	PL	towards a better presentation of dynamic programming	2014	4.8167522640351885	6.188645197059399	1915748
1915854	Arch	on the adequacy of direct mapped caches for lisp and prolog data reference patterns	1989	5.003183378452794	5.656627399405701	1915881
1915974	Logic	demonstration of a model checker for the analysis of product variability	2012	5.8812202684420285	5.8553294025233065	1916001
1916303	SE	semantic clone detection using method ioe-behavior	2012	5.199878828474222	7.099537474975687	1916330
1916438	Logic	finding fixed point combinators using prolog	1993	4.877897326779749	6.0987924523205	1916465
1916851	Logic	smt-based modular analysis of sequential systems code	2011	5.226119023836279	6.626789068728121	1916878
1917670	Theory	test system for a restricted class of lotos expressions with data parameters	1992	5.164135185159173	5.5355374968565885	1917697
1918299	PL	l-systems with inheritance: an object-oriented extension of l-systems	1995	6.12060261020871	7.158524811926246	1918326
1918547	AI	coordinating multi-agent systems by scripts	1998	6.150471602875438	5.890472611968358	1918574
1918548	Logic	hybrid systems and constraint logic programming	1993	5.513449825378463	5.58943081654118	1918575
1918733	AI	an nmf solution to the class responsibility assignment case	2016	4.741817011469394	6.54495973187759	1918760
1919306	SE	quantitative analysis of dynamic safety-critical systems using temporal fault trees	2014	6.100491217887359	5.537312015184819	1919333
1919798	AI	prototyping 3apl in the maude term rewriting language	2006	4.384007059563554	6.7837410103090425	1919825
1920008	Embedded	building your own tools: an oberon industrial case-study	2000	5.9150678380398345	6.987665982203572	1920035
1920074	SE	visibility and types	1976	4.769476558359068	6.275395675082517	1920101
1920511	Arch	scheme86: a system for interpreting scheme	1988	5.6240861364826085	6.790761884605553	1920538
1920943	DB	a suggested method of making fuller use of strings in algol 60	1963	4.622789670273993	6.378295445062126	1920970
1921101	PL	programming in jocaml (tool demonstration)	2008	5.649101600129707	7.2306190008535625	1921128
1922193	PL	an adaptor for c++ callbacks with c and fortran libraries	2013	6.148641323826396	7.240528328532566	1922220
1922517	PL	driving types into php (invited talk)	2017	6.178556003106369	7.442288353140537	1922544
1922648	PL	evolving persistent applications on commercial platforms	1997	5.428567110727116	7.3090905066920575	1922675
1922710	PL	a function-based formatting model	1990	5.800740772261608	6.379359189329448	1922737
1923792	Logic	stepwise refinement of mixed specifications of concurrent programs	1990	5.181439496098979	6.262036876622326	1923819
1924163	PL	a general-purpose macro processor as a poor man's compiler-compiler	1976	5.102056304798661	6.715390540658566	1924190
1925597	NLP	improving the graph grammar parser of rekers and schürr	2011	4.604872379902218	6.571902752703933	1925624
1926770	PL	an experiment in automatic verification of programs	1963	5.178894831649785	5.913633398434113	1926797
1927134	DB	a benchmark evaluation of incremental pattern matching in graph transformation	2008	4.689654441345832	6.1452294261827936	1927161
1928340	HPC	interprocedural transformations for parallel code generation	1991	5.253259942463553	5.902477031266607	1928367
1928961	PL	reflection in a uniform behavioral object model	1993	5.424758417060941	7.2287240033825	1928988
1929007	EDA	a timing model for real-time control-systems and its application on simulation and monitoring of autosar systems	2010	6.124197264345173	5.573385414016831	1929034
1929565	SE	inheritance: from code reuse to reasoning reuse	1998	6.0501168508311345	7.300522620871584	1929592
1930034	PL	success and failure of programming environments - report on the design and use of a graphic abstract syntax tree editor	1990	5.0719616891253585	6.812444682205262	1930061
1930311	PL	views on transportability of lisp and lisp-based systems	1981	5.770552389301367	6.727792088662236	1930338
1930505	PL	executing an secd machine using logic programming	1995	5.118481172337972	7.0137863321314855	1930532
1930795	AI	two paradigms are better than one, and multiple paradigms are even better	2009	5.0721162470426835	6.424237709835968	1930822
1930979	PL	deepfix: fixing common c language errors by deep learning.	2017	6.099975182233885	7.165939902608162	1931006
1931775	PL	decompiling java using staged encapsulation	2001	5.650862319105128	7.384803449437628	1931802
1931957	PL	hazelnut: a bidirectionally typed structure editor calculus	2017	4.555055909714333	7.418855425090864	1931984
1932541	Logic	an acl2 tutorial	2008	5.68030119052196	6.338870137001862	1932568
1932865	PL	a formal semantics for dai language numl	1995	5.840976630515923	7.2004013648495	1932892
1933290	DB	alto: a link-time optimizer for the compaq alpha	2001	5.0447861893688	7.348579383053461	1933317
1933326	PL	constraint handling rules	1994	4.5995490261088605	6.431073764342555	1933353
1933602	AI	debl: a knowledge-based language for specifying and debugging programs	1989	6.1151755015702784	6.526459064133246	1933629
1933881	Robotics	internal inconsistencies in the third edition of the iec 61131-3 international standard	2016	5.726476699346289	6.418844673257339	1933908
1934292	SE	predicate logic for software engineering	1993	4.680255623027036	6.2153859451539795	1934319
1935105	DB	c# overloaded operators	2004	4.6715224655244985	5.9836402736755705	1935132
1935442	PL	syntax and semantics of babel-17	2010	4.5625781001918	7.244834673009688	1935469
1935549	PL	ruler: programming type rules	2006	5.898848431999558	6.819596456007936	1935576
1935820	PL	predictive parser combinators need four values to report errors	1996	4.523670672865175	6.381018822977537	1935847
1937126	HPC	data directed input-output in fortran	1967	5.154400975957309	6.760408248941822	1937153
1937330	Arch	improving your cash flow: the computer algebra shell	2010	6.0267046260920285	6.4866932348646005	1937357
1937854	Logic	a new formalism that combines advantages of fault-trees and markov models: boolean logic driven markov processes	2003	6.090394993435017	6.528459654118883	1937881
1938146	Robotics	analytic approach for natural language based supervisory control of robotic manipulations	2016	5.900009887662024	5.625160833325311	1938173
1938273	PL	extending languages by leveraging compilers: from modelica to optimica	2011	5.893489970653103	7.067357153531716	1938300
1938303	PL	qute: a functional language based on unification	1984	4.8689870622442335	5.592599143611526	1938330
1939557	PL	patterns, symmetry, and symmetry breaking	2008	6.065567941246213	5.767412576964109	1939584
1939635	PL	compile time symbolic derivation with c++ templates	1998	4.4496517079124125	6.647470151946982	1939662
1940108	PL	systems for systems implementors: some experiences from bliss	1972	6.264131427082264	6.580274890070068	1940135
1940287	PL	introduction to simulation languages	1977	6.001831478796554	6.272744619656781	1940314
1940417	SE	error recovery in systems of communicating processes	1984	5.640254159775277	5.563885225483208	1940444
1940433	PL	compiling c for vectorization, parallelization, and inline expansion	1988	4.940921240279807	6.747634636350317	1940460
1940494	PL	maya: multiple-dispatch syntax extension in java	2002	5.163082378971349	7.392616433465871	1940521
1941479	HCI	panoptes: an exploration tool for formal proofs	2009	4.888777549544505	6.214489662514082	1941506
1943454	NLP	partially specified signatures: a vehicle for grammar modularity	2006	5.476818629141961	6.774493198739497	1943481
1943770	PL	new developments in pascal-sc	1988	4.893325459050513	6.741337053298981	1943797
1943922	EDA	an fpga based architecture for concurrent system design applied to human-robot interaction applications	2014	5.854923724337072	5.691840787335393	1943949
1944904	Theory	exercise: +-1 bug and center of an array problem	2014	4.597260546328943	6.287004804780951	1944931
1944981	PL	narrowing as the operational semantics of functional languages.	1985	4.421400970217959	5.813915479540357	1945008
1945255	PL	supporting truly object-oriented debugging of c++ programs	1994	5.893817948460266	7.0881985015759685	1945282
1945744	PL	processing language with logical types and active constraints	1991	4.455436993912616	5.562653905127262	1945771
1946132	AI	datalog, units and information hiding	1997	5.458788333176826	6.503388022895121	1946159
1946419	SE	object oriented approach in fuzzy arithmetic using parametric representation of fuzzy numbers	2007	5.679598316796144	7.037025952249426	1946446
1947205	Theory	rewrite rule grammars with multitape automata	2017	4.443430145611097	6.007800231566418	1947232
1947302	Logic	process calculi, from theory to practice: verification tools	1989	5.700936892058655	5.9215688021097135	1947329
1948030	PL	escape from zurg: an exercise in logic programming	2004	4.426062281789144	6.5510754518626895	1948057
1948075	OS	implementation of interlisp on the vax	1982	5.843669720221242	6.665560026695641	1948102
1948118	PL	concepts of object-oriented programming with visual basic	1997	4.953150866971196	6.579989561252117	1948145
1948294	PL	support for value types in an object-oriented programming language	2004	5.198024039599166	6.68430013129209	1948321
1948480	PL	quickscript - a simscript: like language for the g-20	1965	6.078829881210175	6.1043201203394215	1948507
1948572	AI	guided programming and automated error analysis in an intelligent prolog tutor	2004	5.659234706124767	6.44291748423279	1948599
1949008	Arch	symbol hardware debugging facilities	1971	6.201974146271724	6.502957079478669	1949035
1950161	PL	amalgamating multiple programming paradigms in prolog	1987	5.443775922052245	6.7305377326792195	1950188
1950328	PL	generación automática de analizadores sintácticos a partir de esquemas de análisis	2005	5.038826307352277	6.4331264091951255	1950355
1950547	Logic	model checking russian cards	2006	4.497574188052586	5.710033127855414	1950574
1951723	Robotics	a control structure for a variable number of nested loops	1982	4.781884224492081	6.403254556085415	1951750
1952117	PL	transitions in extendible arrays	1973	4.743006035356663	6.812660443083522	1952144
1952480	PL	algorithm 312: absolute value and square root of a complex number	1967	5.5858077209962556	6.4049267674700685	1952507
1953112	Theory	a look at the design of lua	2018	5.979885196343435	6.390462197441247	1953139
1953981	DB	safety and liveness from a methodological point of view	1990	4.480606862456102	7.066096302689423	1954008
1954293	PL	fms: functional programming as a modelling language	2018	5.980878122027633	6.717529787542148	1954320
1954857	Logic	finite state machine theory as a tool for construction of systolic arrays	1989	6.215532455504918	7.071588295016898	1954884
1955126	PL	reverse engineering from assembler to formal specifications via program transformations	2000	6.068690421817098	7.0206578054497895	1955153
1956202	SE	translating lucid data flow into message passing actors	1983	5.667845756040036	6.1260828473226265	1956229
1956735	PL	implementing tagged types and type extensions for ada 9x	1992	5.758928492025	7.225674898246548	1956762
1957300	PL	static analysis of the frequency of change	2004	5.067409171811903	6.9060914273512966	1957327
1957426	PL	natural and flexible error recovery for generated parsers	2009	5.675027108963612	7.10096178247988	1957453
1957656	PL	diagrams and programming languages for programmable controllers	1997	4.513625617380032	6.9091261615330986	1957683
1957938	AI	class instances in a terminological framework - an experience report	1990	4.809268537164439	6.407059665646461	1957965
1958901	SE	a laboratory for the study of automating programming	1971	5.402474998879926	5.647774156661517	1958928
1958977	PL	a note on the checking of interfaces between separately compiled modules	1985	4.913324708025165	6.460696280110876	1959004
1959683	DB	cross cutting condensed graphs	2005	5.70901727455862	6.2427636251047565	1959710
1959927	PL	self-compiling compilers: an appraisal of their implementation and portability	1978	6.102283352268483	6.6336070975984684	1959954
1960351	PL	umbriel - another minimal programming language	1995	5.613096688461363	6.486864293917215	1960378
1960456	Arch	finding bugs in device drivers with static driver verifier	2005	6.0615103220562805	6.219689166079514	1960483
1960613	PL	grace: the absence of (inessential) difficulty	2012	6.101056929465098	6.894025139704452	1960640
1960639	PL	multidimensional lucid: design, semantics and implementation	2000	4.563623779366527	6.094321439718101	1960666
1961095	PL	some comments on the aims of mirfac	1964	4.838754693793948	6.734479713878017	1961122
1961304	Theory	the debug slicing of logic programs	2001	4.842237750204609	5.923096022725107	1961331
1961420	NLP	editing large programs using a structure-oriented text editor	1986	5.9900238477362056	6.342326704673245	1961447
1961626	Logic	data structures in context-addressed cellular memories	1972	5.075243536031134	6.043111888102884	1961653
1961810	PL	using graph grammars for data structure manipulation	1990	5.523767992039542	6.726723616001676	1961837
1962099	HPC	an experiment in scientific program understanding	2000	5.007817631563996	6.377847205378487	1962126
1962807	PL	a language for inquiring about the run-time behaviour of programs	1977	5.634593235184196	7.095942435478399	1962834
1963902	NLP	lessons learned from converting the artificial stock market to interval arithmetic	2005	5.943817599222248	6.102061085393361	1963929
1964516	Theory	connecting proof checkers and computer algebra using openmath	1999	4.7109400681945095	5.921545732796285	1964543
1964565	Robotics	sharing and refinement for reusable subroutines of genetic programming	1996	5.192474055722331	6.263131707788259	1964592
1964618	PL	hashed symbol tables for languages with explicit scope control	1979	5.0652832627723	6.487339773581178	1964645
1964746	PL	a logic-based modification of attribute grammars for practical compiler writing	1990	5.020018754001431	5.642920473755921	1964773
1965157	Embedded	timing analysis and validation for real-time systems – guest editor's introduction	1999	5.89594332333027	5.620527702885347	1965184
1966872	ECom	fault tolerant autonomic computing systems in a chemical setting	2011	5.1803283411400844	6.895212805715357	1966899
1967150	HPC	two fundamental concepts in skeletal parallel programming	2005	5.8881193425319776	6.471079694410544	1967177
1967413	Logic	autonomous control of hybrid systems with declarative controllers	1993	6.113423930203085	6.142117696461098	1967440
1969313	PL	fast dispatch mechanisms for stock hardware	1988	5.4785549851072	6.734737945459244	1969340
1969882	PL	cobol under control	1976	6.224742218653464	5.991368434441264	1969909
1970026	AI	a generic mapping approach for the integration of bdi with object orientation	2014	6.05987051889606	6.70431233618512	1970053
1970481	Theory	a model for program complexity analysis	1978	6.256480204956709	5.864524141342637	1970508
1971186	NLP	an evaluation of throw-away compiling	1983	5.907691350715921	6.665732232651164	1971213
1971227	NLP	modular grammar specification	2014	5.279741046317207	6.66073704922377	1971254
1971648	Logic	zb 2002:formal specification and development in z and b	2002	4.809520111291253	6.406023539251528	1971675
1971735	EDA	functional classes guide use of design patterns in implementing mediators	2007	6.1233761847076025	7.326371900791615	1971762
1972299	AI	cafeobj: logical foundations and methodologies	2003	4.671317816970463	6.981389974940423	1972326
1972371	PL	adaptive pattern matching on binary data	2004	4.51649439269587	6.760291294035075	1972398
1972578	OS	event abstraction debuggers for layered systems in prolog.	1990	5.884476981680776	5.869857013468425	1972605
1973147	Logic	constructing language processors with algebra combinators	2010	5.682792756147716	7.330446196580879	1973174
1975214	SE	afada, a measurement tool for ada	1991	6.1167606536699495	6.646440054080354	1975241
1975344	PL	a classification of extensible programming languages	1972	4.6793264517536715	6.352068418200133	1975371
1976008	PL	interfaces to path 3.0: design, implementation and usage	1999	6.205718416801517	5.602044081129455	1976035
1976043	PL	relative debugging for data-parallel programs: a zpl case study	2000	5.710419251322008	7.194849043037172	1976070
1976148	Theory	security correctness for secure nested transactions - extended abstract	2013	4.617226979520669	5.568178851639904	1976175
1976219	PL	scrap your boilerplate with xpath-like combinators	2007	4.549311478521785	7.113918149945781	1976246
1976993	Robotics	a useful autonomous vehicle with a hierarchical behavior control	1995	6.257341587060638	7.108507615920383	1977020
1977110	AI	experiments with an agent-oriented reasoning system	2001	5.4871585909535625	6.337376590564838	1977137
1977452	HPC	relationship between state machine and dynamic behavior: coherence among events and messages	2012	5.373028236161834	6.007254590053017	1977479
1977654	AI	a new approach for constraint programming in music using relation domains	2012	4.637323888903906	6.055273373278836	1977681
1978057	PL	just-in-time inheritance: a dynamic and implicit multiple inheritance mechanism	2016	5.070679636728837	7.342671731508607	1978084
1979214	PL	disco specification language: marriage of actions and objects	1991	5.168181015515135	5.937254220112176	1979241
1979593	Robotics	marc: a multiagent robot control system	1993	6.1685012611415	5.804653661386701	1979620
1979667	PL	a lightweight approach to datatype-generic rewriting	2008	4.6479235601393345	7.346198958073543	1979694
1980326	SE	augmented bnf for syntax specifications: abnf	1997	6.06222722924841	5.6442867641236845	1980353
1980480	PL	proving make correct: i/o proofs in haskell and clean	2002	4.424736278131955	6.885264522852705	1980507
1980554	PL	implementing continuation based language in gcc	2011	4.461860270141897	6.756787779608338	1980581
1980765	SE	csp2b: a practical approach to combining csp and b	2000	5.3113567265076975	7.091332104733395	1980792
1980931	PL	spider - an advanced symbolic debugger for fortran 90/hpf programs	2002	5.792261359317275	5.806610694362861	1980958
1981212	PL	guarded attribute grammars	1993	4.606652504025078	7.194708524356376	1981239
1981816	PL	interprocedural analyses of fortran programs	1998	5.594551790670427	7.100410595670983	1981843
1982082	NLP	combining transformational and derivational analogy in larch specification generation	1994	5.134661107864007	5.7852374257987424	1982109
1982122	Logic	a portable syntax analyzer for microcomputers	1985	5.938647458533643	7.010035652071693	1982149
1983594	PL	a compact syntax chart for ada	1992	4.766891181779001	6.404584873720478	1983621
1984258	Logic	arrays and references	1990	5.385763059639333	6.1364302975782525	1984285
1984777	Logic	specification and verification of distributed systems using prolog interpreded petri nets	1984	4.877146859155026	6.052045738755944	1984804
1985344	PL	implementation of bedsocs: an interactive simulation language	1980	5.723555387857072	6.172215699491111	1985371
1985601	HCI	formal analysis and modeling for communications in interactive systems	1997	6.255994570658327	5.577674452345944	1985628
1985637	PL	alias analysis method for object-oriented programs using alias flow graphs	2004	5.82611581682318	6.127022268893605	1985664
1986818	HCI	an authoring tool to derive valid interactive scenarios	2013	4.804602757182104	6.667947470686122	1986845
1987032	HCI	tau be or not tau be? - a perspective on service compatibility and substitutability	2010	5.7651733627989294	5.7572654086572825	1987059
1987876	DB	integrating database technology and logic programming paradigm	1990	5.323667353229903	6.022497071759203	1987903
1988591	Arch	motorola 68040 microprocessor simulation for the sun workstation	1994	6.297973868390122	6.2866914186285054	1988618
1989571	Graphics	construction of interactive programs in computer graphics	1988	6.12215475092811	6.030223746142509	1989598
1989598	AI	comparative analysis of lisp and apl2	1987	5.6051071404954715	5.988160678449239	1989625
1989650	PL	solving the flowgraphs case with eclectic	2013	6.135365348347647	7.439918715098563	1989677
1989738	SE	semantic extension possibilities in the proposed new fortran	1989	5.43666899686882	6.5312965874076685	1989765
1989774	AI	default physical measurements in sumo	2014	4.844561541421101	5.876034169507906	1989801
1989890	SE	identifying procedural structure in cobol programs	1999	4.643709908572224	7.361238605215553	1989917
1990283	Web+IR	automated reasoning service for hol light	2013	5.063381712297182	6.524155599979322	1990310
1991712	Logic	verification in process algebra of the distributed control of track vehicles - a case study	1994	5.420662923364123	6.309857873731363	1991739
1992241	PL	the functional programming language r and the paradigm of dynamic scientific programming - (position paper)	2012	5.320094730082713	6.586998722473347	1992268
1992964	SE	engineering vax ada for a multi-language programming environment	1986	6.285880184165974	7.176338876925987	1992991
1993194	Logic	logical programming for the telegram analysis problem	1987	4.91034565484601	5.668286826132897	1993221
1993319	SE	comprehension support of sql statement using double-tree structure	2011	5.95398512400353	6.139855831299615	1993346
1993952	Logic	teaching formal methods based on rewriting logic and maude	2009	4.948883415063153	6.770945294307403	1993979
1994458	ML	3d simulation of the cluster-cluster aggregation model	2014	5.243026011564548	5.9570900942298035	1994485
1996882	DB	combining eca rules with process algebras for the semantic web	2006	5.734742288532458	7.388754397379241	1996909
1997701	PL	fence - a context-free grammar parser with constraints for model-driven language specification	2012	5.473869557755487	6.954199362517223	1997728
1997797	PL	page: portable lalr(1) parser generator	2014	4.450379760949454	6.718491170593331	1997824
1998153	PL	on complementary principles of object-oriented constraint programming	2010	4.429611943136647	6.428479731633004	1998180
1998539	AI	an investigation into the expressive power of pddl2.1	2004	4.376058512572959	6.0982669496734445	1998566
1998580	PL	history of ibm's technical contributions to high level programming languages	1981	5.659229903423633	6.7145028752480185	1998607
1998962	NLP	programming ruby - the pragmatic programmer's guide (2. ed.)	2005	6.307437511842022	5.609708700050727	1998989
2000892	SE	funky grooves: declarative programming of full-fledged musical applications	2017	6.219281835091373	6.365077767153415	2000919
2001014	PL	monatron: an extensible monad transformer library	2008	4.825990744801174	6.9001970616494965	2001041
2001184	AI	"""discussion on: """"equivalence of different realization methods for higher order nonlinear input ­ output differential equations"""""""	2005	4.668029472812771	5.747156234670826	2001211
2001211	PL	communications in concurrent systems - programming language primitives and interconnection networks	1992	4.908785215848703	5.983835053421387	2001238
2001244	Crypto	eliminating proofs of non-interference from levin-gries csp program proofs	1986	4.4774715151073785	5.607490659664672	2001271
2001964	DB	models and emerging trends of concurrent constraint programming	2013	5.019795677739495	6.108700977725532	2001991
2002784	PL	experimenting with formal languages using forlan	2008	4.8900230035908825	6.652568695455705	2002811
2003131	NLP	top-down parsing in coco-2	1991	4.809697877759801	6.388295227352238	2003158
2003734	Theory	fact-oriented modeling from a programming language designer's perspective	2006	5.496746633736629	6.872519609739527	2003761
2004115	PL	programming languages should not have comment statements	1988	4.70636296510623	5.992353512419795	2004142
2005117	HPC	parsing an extension to codasyl fortran dml	1982	5.118105452755413	6.0877670720138894	2005144
2005166	Logic	object oriented application flow graphs and their semantics	1993	5.772198797424671	6.5857008699292185	2005193
2005310	PL	implementing russell	1986	4.692823882211883	7.235082206072057	2005337
2005407	PL	incremental forest: a dsl for efficiently managing filestores	2016	5.4380765637103625	7.320009688200336	2005434
2005503	OS	a prototype implementation of gpss in sas	1989	6.114427154658243	6.450232191357638	2005530
2006193	DB	a functional model of a simplified sequential machine	1990	6.01225674517506	6.1613583025681296	2006220
2006332	AI	controlling production firing: the fcl language	1985	5.275317060588353	5.8728054590501655	2006359
2006959	PL	modula-3 language definition	1992	5.307446614413067	7.36204010056835	2006986
2008127	PL	netrexx-an alternative for writing java classes	1997	6.261093531702252	7.334217694837083	2008154
2008375	Logic	combinatory logic synthesizer	2014	5.628664339344011	6.934289557929933	2008402
2008703	AI	jwasp: a new java-based asp solver	2015	5.458914068923961	6.690809446367375	2008730
2009497	Logic	challenges in type systems research	1996	5.591116693615018	6.896742999407484	2009524
2009538	PL	compilation or interpretation	1989	4.953468973659007	7.277763791046015	2009565
2009985	PL	declarative representation of proof terms	2009	4.545791776728387	6.968184436145825	2010012
2010019	NLP	building bridges between knowledge representation and algebraic specification	1994	4.798075084230959	6.365279995900574	2010046
2010026	ML	fractally configured neural networks	1991	5.067133545473457	5.653890249452672	2010053
2010279	SE	the testing of an apl compiler	1993	6.198649457195639	6.880305566292236	2010306
2010565	PL	down with emacs lisp: dynamic scope analysis	2001	5.1472085752767756	7.41031488167439	2010592
2010916	HCI	principles of programming languages: design, evaluation, and implementation	1987	4.939781578784658	6.771010272218609	2010943
2011547	AI	augmenting atns	1977	4.699822986813522	6.258700152863872	2011574
2011558	SE	the single transferable voting system: functional decomposition in formal specification	1997	5.345436256773507	6.856949331171784	2011585
2012537	AI	how should prolog computation be represented for practical use?	1990	5.68642170671407	6.588839644873698	2012564
2012759	AI	higher order programming in java: introspection, subsumption and extraction	2005	5.3276877965523735	7.31075325525169	2012786
2012788	AI	agent-based hol reasoning	2016	5.671872552767268	6.512209867001289	2012815
2013170	Logic	subject-observer specification with component-interaction automata	2007	4.987902907274601	5.922948028387245	2013197
2013466	PL	a system for the symbolic analysis of problems in engineering mechanics	1994	4.8633502279519485	6.367390834215414	2013493
2013780	PL	yet another generation of lalr parsers for regular right part grammars	2001	4.421677616508722	6.257008257517708	2013807
2013815	PL	functional programming with overloading and higher-order polymorphism	1995	4.827359705597541	7.398914634101031	2013842
2013855	PL	fortran iv as a syntax language	1964	4.575367070714498	6.5773888305360595	2013882
2014309	PL	scripting .net using mondrian	2001	4.845339274271909	7.06898174398191	2014336
2014738	PL	control flow treatment in a simple semantics-directed compiler generator	1982	5.311891207458208	5.8622717701492855	2014765
2014875	PL	programming languages: towards greater commonality	1994	4.435739604301452	6.512584790725971	2014902
2015102	PL	object-oriented tree traversal with jjforester	2003	5.850689137028471	6.652385953261119	2015129
2015322	Arch	an executable specification of the hdg-machine	1993	5.0715226446196064	6.985748403838996	2015349
2015731	SE	a conarg-based library for abstract argumentation	2017	4.550818665801493	6.095269481934968	2015758
2016556	DB	constructing database systems in a persistent environment	1987	5.625785273923081	6.505992329274787	2016583
2016583	Logic	stream fusion in hol with code generation	2014	5.589175967994912	5.621823317303679	2016610
2017127	Embedded	a refinement calculus for real-time systems	1992	5.6365402552405826	5.539819059893666	2017154
2017597	AI	curry: a multi-paradigm declarative language (system description)	1997	5.298851179115192	6.255303736519902	2017624
2017914	Theory	a mathematical model of character string manipulation	1980	5.294225916500396	5.921428066761229	2017941
2017949	HCI	formalising key-distribution in the presence of trust using object-z	2003	5.915604908307282	5.989322157558139	2017976
2019224	PL	logic programming with graph automorphism: integrating nauty with prolog (tool description)	2016	4.5848697366652855	7.339956489676697	2019251
2019579	DB	deductive and object data languages: a quest for integration	1995	5.446512247372098	6.4824345216777655	2019606
2019604	Logic	action algebras and model algebras in denotational semantics	2009	4.623985286919521	6.674971786389714	2019631
2019940	PL	pool: a persistent object-oriented language	2000	6.118176005220138	7.034054453119526	2019967
2020331	PL	a knowledge base organization for rules about programming	1977	5.584690617291155	6.226976906102999	2020358
2020360	OS	extensible data features in the operating system language osl/2	1971	5.687222751929919	6.955747025646497	2020387
2020569	DB	interpreting rsets, ssets and features by denotational semantics	1996	6.129117441446642	6.520479365785023	2020596
2021001	NLP	explicitly recursive grammar combinators - a better model for shallow parser dsls	2011	5.039189428065481	7.176436935298216	2021028
2021271	PL	a formalism for program translation	1968	4.776635958667184	6.936131426225656	2021298
2021424	PL	user defined data types in apl2	1989	4.760103876195362	5.971421272304451	2021451
2021546	AI	a formal picture description scheme as a basis for picture processing systems	1969	5.328164903124125	5.5794577952646085	2021573
2021856	Logic	edit and verify	2007	5.3705001828789936	6.232529992382915	2021883
2021959	Networks	transaction level modeling of network protocols using java.	2004	5.955988647154932	5.706706347776357	2021986
2022089	PL	next generation input-output data format for hep using google's protocol buffers.	2013	5.84439021849043	6.487039580103482	2022116
2022172	Embedded	designing state-based systems with entity-life modeling	2006	6.1028032178381135	6.053630456443307	2022199
2022242	PL	domain specific embedded compilers	1999	6.25025306236804	7.114367298265938	2022269
2022706	PL	a compiler written in prolog: the véda experience	1988	5.743190991729372	6.85357689319373	2022733
2023214	PL	projecting functional models of imperative programs	1993	4.700233032782925	6.922389773990688	2023241
2023375	PL	jinterval library: principles, development, and perspectives	2013	5.424859833288032	6.6319281815950095	2023402
2024127	SE	liveness properties in cafeobj - a case study for meta-level specifications	2014	5.656856013695967	6.975864152537628	2024154
2024202	PL	another defence of enumerated types	1991	5.003577038022475	6.9751538866707605	2024229
2024320	PL	optimizing parser combinators	2016	4.457804858954361	7.179023250816443	2024347
2024532	Graphics	from functional animation to sprite-based display	1999	6.044720857468168	7.181184060484291	2024559
2024594	Logic	rekonfigurovatelná analýza strojového kódu ; retargetable analysis of machine code	2015	5.734055129446423	5.707970868103738	2024621
2025843	Arch	high-level characteristics of or- and independent and-parallelism in prolog	1996	4.8073945345721985	6.088639813410858	2025870
2026201	Logic	software verification: infinite-state model checking and static program analysis, 19.02. - 24.02.2006	2006	4.665191220171322	6.238493059594503	2026228
2026961	Graphics	grammar-based compression of interpreted code	2003	5.431945505584018	5.68472050384882	2026988
2027248	SE	assessing the quality of abstract data types written in ada	1988	5.898272086418036	7.011602043023299	2027275
2028551	PL	java multi-method framework	2000	5.568089127685568	7.440156810407933	2028578
2028663	Robotics	practical implementation of eplas: an epistemic programming language for all scientists	2011	5.450203291505033	6.236023590467456	2028690
2029072	PL	compiling logics	2012	4.685387190206714	7.4403274987285	2029099
2029508	PL	implementations of abstract data types and their verifaction	1981	4.828464445368517	6.695964701541557	2029535
2030007	SE	how to make algebraic specifications more understandable: an experiment with the pluss specification language	1989	5.301180353278807	7.102540705456828	2030034
2030631	HPC	high performance parallel logic programming: the ace parallel prolog system.	1997	4.76313193326805	5.558768338102727	2030658
2030897	PL	complete visualization of concurrent programs and their executions	1990	5.939148212557285	5.913448260403856	2030924
2031423	PL	interact: an interactive theorem and completeness prover for algebraic specifications with conditional equation	1995	4.8067627707830995	6.457051358792831	2031450
2032101	AI	capabilities of the mumath-78 computer algebra system for the intel-8080 microprocessor (invited)	1979	5.509044642853405	5.645174588479023	2032128
2032910	AI	le: a high level language for specifying vision verification tasks	1991	5.399535847537029	6.302629746531178	2032937
2032969	PL	a programmer's reduction semantics for classes and mixins	1999	4.547118667736627	7.048368615272621	2032996
2033006	Logic	on language restrictions to ensure deterministic behavior in concurrent systems	1978	4.836958891592057	5.703909761491183	2033033
2033033	OS	presentation of the schoonschip system	1974	5.753947275758024	6.142477172473957	2033060
2033537	Logic	a coordination approach to mobile components	2005	5.235164146819184	7.383153979177332	2033564
2033702	Robotics	modular multiset rewriting	2015	4.6335233844544925	6.9790569206786826	2033729
2033747	PL	challenges in type systems research	1997	5.7566771854482175	6.9267212492659365	2033774
2034177	PL	parsing and reflective printing, bidirectionally	2016	5.616443466578438	6.981959370217112	2034204
2034605	Logic	abstract stobjs and their application to isa modeling	2013	4.960346837754215	7.343833683808487	2034632
2035346	PL	programming in the large: the algebraic-functional language opal 2alpha	1997	4.447952448181193	7.059630965866817	2035373
2035668	SE	abstraction in software model checking: principles and practice	2002	6.009741499811022	6.894060403852407	2035695
2036516	PL	from lisp s-expressions to java source code	2008	5.626881019303715	7.2889886996622755	2036543
2036703	SE	logic programming and software maintenance	1997	5.825092333838075	6.187818237529683	2036730
2036768	HPC	hepml, an xml-based format for describing simulated data in high energy physics	2010	6.036885023175764	6.3124440886689825	2036795
2036856	Logic	operator programs and operator processes	2003	5.158704814549679	6.054645258882011	2036883
2037065	PL	behavioural coherence in object-oriented algebraic specification.	2000	5.900772911951816	5.855828563385549	2037092
2037837	PL	inc: a language for incremental computations	1991	5.1884128903108895	7.40971816813761	2037864
2038251	PL	logicon: an integration of prolog into icon	1986	5.474857526435208	6.6752638722602695	2038278
2039106	Robotics	a task frame formalism for practical implementations	2004	5.352822156005419	6.439289547465443	2039133
2039265	PL	corrigenda: pipeline architecture	1978	5.5658297267783725	6.387744900566419	2039292
2039665	NLP	an incremental ll(1) parsing algorithm	1993	4.6339764105428305	6.259795782309448	2039692
2041192	SE	software tools for first-order logic	1983	6.07472551498991	6.721491781547358	2041219
2042106	SE	parallel and distributed execution of constraint programs	2000	5.485804690631729	6.055541799904003	2042133
2042694	PL	an implementation of precompiled headers	1993	5.400262014928273	7.021575537732608	2042721
2042853	SE	model synchronization: mappings, tiles, and categories	2009	5.8105870006600355	6.273080848218045	2042880
2043766	PL	tribe: a simple virtual class calculus	2007	4.636557672204497	7.2856435730815186	2043793
2043851	PL	automatic generation of natural language parsers from declarative specifications	2006	5.494540998667854	6.613085343924433	2043878
2044163	SE	dynamic shape analysis of program heap using graph spectra: nier track	2011	5.122556137323414	7.393668617088389	2044190
2044168	Logic	semgrex-plus: a tool for automatic dependency-graph rewriting	2017	5.494540428212281	6.168690469788602	2044195
2044405	PL	programming discrete physical systems	2010	5.446300651101722	6.380686641068866	2044432
2044852	PL	statistics on graph reduction of sasl programs	1988	4.394852351437146	5.7187579674762405	2044879
2045024	Visualization	an intentional approach to parallel programming	1993	5.432998488663528	5.645984621549889	2045051
2045356	Logic	verification of an ad-hoc serial communication protocol through model-checking: a case study with echo sounder	2017	5.817953936531079	5.58458027352607	2045383
2046421	PL	hygienic macro system for javascript and its light-weight implementation framework	2014	5.326621764266561	7.204633317792212	2046448
2046433	Arch	uncertain<t>: abstractions for uncertain hardware and software	2015	5.210805454236767	7.17775511783249	2046460
2046564	PL	nimotoons: a totally graphic workbench for program tuning and experimentation	2009	5.873338209220319	7.087676255810775	2046591
2047156	PL	oopal: integrating array programming in object-oriented programming	2003	5.715523523980923	7.351988411252961	2047183
2047178	Arch	generalized structured programming	1974	5.461623103920964	5.7558170220462905	2047205
2047286	Logic	a comparison of tools for teaching formal software verification	2008	4.643225087152532	7.201919933128358	2047313
2047376	PL	jason and the golden fleece of agent-oriented programming	2005	6.105527638377942	6.7332715941868475	2047403
2048922	PL	a parsing machine for parsing expression grammars with labeled failures	2016	4.885159274548039	6.602649895440591	2048949
2049048	PL	functional programming - crossing the chasm?	2009	4.916130375243691	6.839975779943488	2049075
2050628	Logic	securely accessing shared resources with concurrent constraint programming	2012	5.247751179848796	5.650356132512782	2050655
2051181	AI	production systems as control structures for programming languages	1977	6.1983077287497315	5.996841408939294	2051208
2052252	DB	an object-oriented database programming environment for oberon	1997	5.065930972544592	6.799634244513334	2052279
2052399	PL	compilers and interpreters	1997	5.662642273279588	6.897204155073854	2052426
2052626	NLP	optimizing typed feature structure grammar parsing through non-statistical indexing	2004	5.339516746566532	5.74569959935616	2052653
2052645	SE	modelling the dynamic structure of biological state-based systems	2007	6.01832863207108	6.3142300191368586	2052672
2052679	PL	the gool system: a lightweight object-oriented programming language translator	2014	5.9168615566027984	7.313000499255279	2052706
2053146	PL	sigact (tutorial session)	1976	5.211832245549196	6.604572357479117	2053173
2053679	PL	crsx - combinatory reduction systems with extensions	2011	4.926876277719343	7.236402552227467	2053706
2053762	Logic	algebraic tools for language processing	1994	4.776618500239488	6.574276689444259	2053789
2054339	Logic	high level iterators and a method for automatically designing data structure representation	1976	4.5633509918573845	7.219542951305473	2054366
2054956	Logic	a calculus for the construction of modular prolog programs.	1987	4.470349877971344	7.215906995666377	2054983
2055142	NLP	on automata and language based grammar metrics	2010	5.452594072583934	6.5395308178937235	2055169
2055960	NLP	online parsing of visual languages using adjacency grammars	1995	4.501756944924235	5.608311013232791	2055987
2056756	Theory	mastering j	1991	5.760662939306132	5.804911976072483	2056783
2057136	Logic	verifying distributed systems with model checking and static analysis	2000	5.184915988913363	6.1697700741550925	2057163
2058135	PL	decorated attribute grammars: attribute evaluation meets strategic programming	2009	4.888466855040171	7.24004379938018	2058162
2058795	PL	the xpl compiler generator system	1968	6.024737127953588	6.388251846502072	2058822
2059106	PL	scrap your boilerplate with class: extensible generic functions	2005	4.481237306026338	6.954659515564897	2059133
2059996	PL	on the design of a tool for supporting the construction of logic programs	2001	5.294761630905044	6.617992020541247	2060023
2060234	SE	a comparison of the axiomatic and functional models of structured programming	1980	4.656922223362428	6.466145331248177	2060261
2060241	PL	a lisp-language mathematica-to-lisp translator	1990	5.473038828559772	6.462199934525911	2060268
2060819	PL	on the functional interpretation of ocl	2016	4.6056156576024385	7.069543512434957	2060846
2061515	PL	language interoperability in control network programming	2018	5.876314389038893	6.912987890891988	2061542
2061676	PL	partial evaluation of computation process - an approach to a compiler-compiler	1999	5.229189418329481	7.068918096828687	2061703
2061836	ML	activity productions for graph grammars	1986	5.007911400524409	5.959658180434658	2061863
2061945	PL	symbolic derivatives without list processing, subroutines, or recursion	1965	4.511673130909172	6.342403999703218	2061972
2063924	AI	dynamic logic programming and world state evaluation in computer games	2006	4.468550382775835	6.33634883869893	2063951
2063958	Logic	predator shape analysis tool suite	2016	5.831331241589414	6.578502483231338	2063985
2064028	PL	virtual theories	1995	4.766480500876504	7.4495204661690995	2064055
2064313	DB	the meaning of null in databases and programming languages.	2016	5.360794140023598	6.0841515198690335	2064340
2064410	PL	a future apl: examples and problems	1989	5.6355660330502175	6.0922803547166176	2064437
2064701	EDA	programming microprocessors with a high level language-the case of pascal/64000	1983	5.6804938614309215	6.874582511859268	2064728
2064779	Theory	optimization of hierarchical directed graphs	1981	4.581478273813112	6.634241950252923	2064806
2064895	PL	agent oriented logic programming in jinni 2004	2005	5.178568109214172	6.981850347082286	2064922
2065249	AI	"""a """"logical pattern"""" recognition program"""	1962	5.5286808496325754	5.535115886045745	2065276
2065892	PL	declarativeness: the work done by something else	2017	5.511330856919947	6.3981914101444115	2065919
2066102	PL	the syntax definition formalism sdf - reference manual	1989	5.462189746734606	6.679793565560397	2066129
2066378	SE	refinement via interpretation	2009	4.5798347296886135	7.055241533128832	2066405
2066419	Logic	construction of asynchronous concurrent systems from their behavioral specifications	1986	5.2865893339250345	5.587141157645889	2066446
2066484	HCI	programming techniques: asp - a ring implemented associative structure package	1968	4.711211767355847	6.533047401395162	2066511
2066674	Logic	transformational rewriting with ruby	1993	4.834792253121278	6.9864902759533525	2066701
2067241	OS	structure of the elf operating system	1976	6.195974748624973	5.8448197784449825	2067268
2067337	Robotics	distributed supervisory control for a system of path-network sharing mobile robots	2007	5.472295663977317	5.771987989042662	2067364
2067822	DB	the postgres rule manager	1988	5.396345710636021	5.5431044110915275	2067849
2069503	PL	implementation of multiple attribute grammar inheritance in the tool lisa	1999	5.407798562447466	7.053489494248668	2069530
2069587	PL	the algebraic specification of abstract data types	1978	4.841136065920923	7.157277860016798	2069614
2069817	PL	editing by example	1984	5.350702011081585	6.406545656115066	2069844
2070011	DB	a transaction logic for database specification	1988	4.4254651606946	5.833641504384997	2070038
2070412	PL	towards algebraic data types grammars: a junction between algebraic specification and graph grammars	1986	4.4077646550491965	6.010475399681608	2070439
2070478	AI	applying formal picture languages to procedural content generation	2015	5.009152385730652	6.639014684746318	2070505
2071098	PL	a 100% portable inline-debugger	1993	5.570265074247272	7.32511452226633	2071125
2071147	PL	programming assistance for type-directed programming (extended abstract)	2016	6.28165566553828	6.900476769415008	2071174
2071908	AI	text editing and beyond a study in logic modeling	1994	4.668312732350927	6.292595028003817	2071935
2072175	PL	aspects and data refinement	2006	5.552572599438917	7.317239161992037	2072202
2072652	Logic	petri net control for grammar systems	2002	4.697020656200516	5.950682436652597	2072679
2072857	AI	a technique for creating small fast compiler frontends	1985	4.43293088907616	6.789760414943175	2072884
2072889	Theory	auxiliary programs for operating with large matrices i : data processing in sequential order	1983	4.654564213261034	6.386592025593772	2072916
2072900	AI	merill: an equational reasoning system in standard ml	1993	4.663383732031759	6.848671792145273	2072927
2073231	PL	flowtrace, a computer program for flowcharting programs	1966	4.94854887840202	6.382071682484804	2073258
2074688	PL	wafe - an x toolkit based frontend for application programs in various programming languages	1993	6.187735815674637	7.064655923956944	2074715
2074818	Logic	a methodology to validate interactive storytelling scenarios in linear logic	2013	4.7169606367617885	6.618795648587253	2074845
2075308	PL	designing and implementing a framework for bdi-style communicating agents in haskell - (position paper)	2012	5.513684896414237	5.587797891497811	2075335
2075439	PL	applicative bidirectional programming: mixing lenses and semantic bidirectionalization	2018	4.47256983466365	6.912210958861718	2075466
2075710	Logic	simulating algebraic specification genericity on languages with initial semantics	2004	4.624677930183156	7.019183286626662	2075737
2076466	PL	the sl5 procedure mechanism	1978	4.6749328294857975	7.10556523307319	2076493
2076485	PL	data field haskell	2000	5.132724684596196	6.537463662540651	2076512
2076639	PL	a comparison of object-oriented programming in four modern languages	1994	6.002775229184554	7.365946064267129	2076666
2077315	SE	consistent consideration of naming consistency	2010	5.526307393622842	6.729988205001184	2077342
2077727	HPC	susy les houches accord 2 i/o made easy	2009	5.74053279682604	5.744897171894232	2077754
2077947	SE	a prolog-oriented extension of java programming based on generics and annotations	2007	6.1387910468767055	6.740547251164503	2077974
2079156	AI	methods and methodologies for developing answer-set programs - project description	2010	5.119772227054958	6.69996553302524	2079183
2079375	AI	linear local and global model checking algorithms for a kernel temporal logic language	1992	4.557419374664068	6.056758168360388	2079402
2080132	PL	an optimizing program for the ibm 650	1956	5.201909110820619	6.5082169143213475	2080159
2080654	PL	concept-oriented programming: from classes to concepts and from inheritance to inclusion.	2015	5.926416898147669	6.607315549658848	2080681
2081486	SE	linear and structural event sequence analysis	1996	5.8610680579836885	6.358338608318657	2081513
2081941	Robotics	erratum to: probabilistic boolean network modeling and model checking as an approach for dfmea for manufacturing systems	2018	5.023580228754125	5.5779064545789625	2081968
2082052	PL	flippr: a prettier invertible printing system	2013	5.58180223193095	7.1154788589853775	2082079
2082156	SE	software construction, part 2	2006	5.9320725838936985	6.867228592919592	2082183
2082235	HPC	determination of dependencies in a knowledge-based parallelization tool☆	1988	5.322029728515545	7.418983566610758	2082262
2082275	PL	helper: an interactive extensible debugging system	1969	6.1684468680943265	6.881676934884568	2082302
2082574	PL	técnicas deductivas para el análisis sintáctico con corrección de errores	2007	4.677571562626203	6.170383140453905	2082601
2083705	PL	arrays of objects	2007	5.660414202930754	7.080438723408777	2083732
2083727	PL	sale, a simple algebraic language for engineers	1959	5.4208813380434115	6.526233531080053	2083754
2083728	OS	a c programming model for os/2 device drivers	1991	6.229792429429303	7.142680582235322	2083755
2083852	PL	constructing language processors using object-oriented techniques	2000	5.553058689208523	6.3864820924851005	2083879
2084435	Logic	towards formal modeling and verification of probabilistic connectors in coq (s)	2018	5.8180238436043314	6.646262559428378	2084462
2084606	NLP	compiling inheritance using partial evaluation	1991	4.870420264976885	5.5537324924921965	2084633
2085120	Embedded	the larch family of specification languages	1985	5.705887999354196	6.7799956669977615	2085147
2085229	AI	modular action language	2016	4.450106470415908	6.145614166892577	2085256
2085416	AI	a general programming language for unified planning and control	1995	5.717786243501174	6.4053256948713315	2085443
2085582	Logic	simultaneous synthesis of multiple functions using genetic programming with scaffolding	2016	4.8457791567215045	6.4069777517527555	2085609
2086408	AI	task anticipation: a quantitative analysis using workflow process simulation	2006	4.68338460928983	5.83768780328532	2086435
2087127	SE	refactoring on the cheap	2012	6.279693719687579	6.778429334708041	2087154
2087296	PL	a prettier compiler-compiler: generating higher-order parsers in c	1995	5.128729019858012	6.966841326439439	2087323
2087352	Logic	the polyhedral model is more widely applicable than you think	2010	4.96140354422713	6.322837580212898	2087379
2087638	PL	sugarj: library-based syntactic language extensibility	2011	5.3108922986395415	7.426172276198881	2087665
2087919	SE	utpcalc - a calculator for utp predicates	2016	5.361661878961133	6.750070756058363	2087946
2088220	Robotics	a formal framework for the development of concurrent object-based systems	2005	6.2929592869138435	5.8878085719378985	2088247
2088748	ML	van wijngaarden grammars as a special information processing model	1980	4.455615994444528	5.9522292412478475	2088775
2090487	Logic	inductive temporal formula specifications for system verification	2005	4.540360724500927	5.6673666502997175	2090514
2090849	PL	the use of diana in compilers, language transformers, formatters and debuggers	1983	6.077873989967896	6.9540083599886025	2090876
2091604	PL	the design principles and algorithms of a weighted grammar library	2005	4.6217825086903455	6.4921545862397565	2091631
2092642	SE	category theory-based synthesis of a higher-level fusion algorithm: an example	2006	5.243584591556126	5.881996810820818	2092669
2092952	PL	a unified numeric representation arithmetic unit and its language support	1977	4.600112288887554	7.212924037798837	2092979
2093221	PL	structured aliasing	2012	5.081861904140929	7.03074476862021	2093248
2093716	PL	how to make your own simulation system	1981	5.645731518459053	6.776501012069472	2093743
2094012	Logic	designing data structures	1989	5.357013936814867	5.541688355792704	2094039
2094970	PL	linguistic relativity and programming languages	2018	5.5524691895745875	6.469062007206439	2094997
2095268	Vision	implementing attribute grammars using conventional compiler construction tools	2011	5.6120060050139955	6.887536178916948	2095295
2095381	Embedded	code generation for model predictive control of embedded systems	2017	6.273699011306795	5.749591388000523	2095408
2096400	Arch	introducing isp	1974	5.218438715209198	5.782724766306374	2096427
2096899	PL	cliché-based program editors	1994	5.355048610176609	6.56930433934145	2096926
2097821	PL	parameterising (algebraic) specifications on diagrams	1998	4.41749837866034	6.621666041074133	2097848
2098251	SE	design considerations for array processing languages	1980	6.027692848770935	6.180080425182035	2098278
2098594	Logic	from process models to concurrent systems in alvis language	2017	5.3721769975367115	5.6972181028685895	2098621
2099140	AI	program complexity using hierarchical abstract computers	1988	4.611678573018147	6.0801525892852615	2099167
2099985	DB	an event-condition-action logic programming language	2006	4.9923670572369305	5.7861766333087274	2100012
2100575	SE	a framework for neural net specification	1992	5.101970317297393	6.4509209424997485	2100602
2101773	Theory	a simple methodology for studying program time complexity	1990	5.158664540181599	5.864025231757788	2101800
2102189	SE	exporting prolog source code	2002	6.282852108884383	6.712153325955267	2102216
2102815	PL	a tale of three lr(1) syntax analyzers	2007	5.6765523711846	6.637993205490158	2102842
2103612	Graphics	msc'96 and beyond - a critical look	1997	5.5402960183482834	6.902299857292901	2103639
2104159	PL	system description: isabelle/jedit in 2014	2014	5.659932466961782	6.745127405588918	2104186
2105686	Theory	request for methods or programs	1958	5.789364467001437	5.833924689449201	2105713
2106446	PL	modular compilation in high level languages	1988	5.6997707860995925	5.757393824425451	2106473
2106756	SE	the effectiveness of error seeding	1989	5.773033980612446	5.685918585657959	2106783
2107150	PL	a memory-based approach to recognizing programing plans	1994	5.883888440609508	6.634505699187749	2107177
2107236	SE	automatic programming and program maintenance with genetic programming	1995	6.12288236765037	6.166591011708182	2107263
2108099	SE	formal foundations for semi-parsing	2014	5.157964276672986	6.2295910695437	2108126
2108665	Logic	distributed ctl model checking in the cloud	2013	5.010150854697818	5.759742830997938	2108692
2108822	PL	longnbrs and palindromes: an interesting application of a class	1998	5.206093924946263	6.133268704009402	2108849
2109100	PL	using reflection to reduce the size of .net executables	2005	5.703229692377704	7.006531679560367	2109127
2109181	AI	refiner: a problem-solving environment for scientific simulator creation	2002	4.513678185710306	6.678255312088907	2109208
2109533	AI	extended automata for temporal planning of interacting agents	2017	4.619268627984699	6.367016180893573	2109560
2109984	PL	optlang: an algebraic modeling language for mathematical optimization	2017	5.0767951304693	6.237338414349407	2110011
2110368	NLP	improving eiffel assertions using quantiefied iterators	1997	5.037671153379428	6.055953617246892	2110395
2110589	PL	implicit invocation of traits	2010	5.544885332149783	6.555680665868895	2110616
2111255	AI	book review: the logical foundations of artificial intelligence. by michael r. genesereth and nils nilsson (morgan kaufmann 1987)	1988	4.635933281768712	6.4011017528134975	2111282
2112559	NLP	symple: a general syntax directed macro preprocessor	1969	4.8818078626063155	6.655060289912357	2112586
2112873	EDA	static verification of railway schema and interlocking design data	2016	5.083598695919911	7.0680241604102285	2112900
2113933	PL	implementing orthogonally persistent java	2000	6.059176701155781	6.098405873706724	2113960
2114000	Arch	direct execution of lisp on a list-directed architecture	1982	5.214028737146855	6.8487742001484255	2114027
2114637	SE	dimensional analysis with c++	1988	5.283554832953262	6.985520612972329	2114664
2115383	HCI	porting to hpf: experiences with dbetsy3d within pharos	1997	6.191481736780447	6.755761280969577	2115410
2116345	Vision	a multiplatform comparison of a dynamic compilation using roslyn and mathematical parser libraries in .net for expression evaluation	2015	5.4601257082719075	7.228819173229335	2116372
2116504	NLP	uniparse: a universal graph-based parsing toolkit	2018	5.545822410497658	7.392692429726762	2116531
2116967	Theory	from programming language design to computer construction	1985	4.952558292142654	6.3196377123181575	2116994
2117243	Logic	using model checkers in an introductory course on operating systems	2008	6.180943210734467	7.3514591998188425	2117270
2117614	PL	depot4 - a generator for dynamically extensible translators	1998	5.952621838393822	7.238167539187113	2117641
2117950	PL	grail: a functional form for imperative mobile code	2003	5.176696688256032	6.8402241821035865	2117977
2117982	PL	the evolution of c++: 1985 to 1989	1989	5.233783145053679	6.862453921680912	2118009
2118729	PL	compiling techniques for boolean expressions and conditional statements in algol 60	1961	4.631315065410932	6.892080399208753	2118756
2119304	SE	the columbus approach	1975	5.541557035358058	6.547657841796992	2119331
2119905	EDA	to do or not to do hierarchical timing?	2013	5.971218411517572	5.6653268814402225	2119932
2120111	PL	intermediate program representations in compiler construction: a supplemental bibliography	1984	5.102925780466632	6.1924561103221105	2120138
2120793	Web+IR	vipspace - a visual programmable shared workspace	1998	5.746726985275655	6.271706084821311	2120820
2120824	AI	causal interaction: from a high-level representation to an operational event-based representation	2001	5.632493499350829	6.822458889186418	2120851
2121299	SE	petri-net based detection method for non-deterministic feature interactions and its experimental evaluation.	1997	4.841224333997473	5.554710473119268	2121326
2122247	PL	generating action compilers by partial evaluation	1996	5.133049472716394	6.8606516227403525	2122274
2122947	PL	enhanced input/output on pascal	1983	5.934655001485855	6.538832656923659	2122974
2122992	ML	discovering queues from event logs with varying levels of information	2015	4.5456370325083775	5.6173585944878734	2123019
2123253	PL	data abstraction in modula-2	1993	5.557775288448505	6.679689139726412	2123280
2123503	PL	representing semantically analyzed c++ code with reprise	1991	6.218947708070832	6.450420091100197	2123530
2123590	PL	thoughtless programming? author's response	1978	4.668121434799298	6.864947896146494	2123617
2124165	EDA	an operational framework for the multi-lingual system simulation based on pi-calculus	2001	6.090146900502536	6.45548150308092	2124192
2124228	Logic	safe template processing of xml documents	2011	5.287251559929917	6.979480597110517	2124255
2124289	Theory	an approach to the din kernel lisp definition	1992	5.433938787603066	6.789373805026994	2124316
2124524	PL	a simple, possibly correct lr parser for c11	2017	4.779918139632089	7.237718629711122	2124551
2125226	ECom	superposition principle in composable hybrid automata	2018	4.6587400764524265	5.609914769363044	2125253
2125245	PL	tool paper: scalabison recursive ascent-descent parser generator	2010	4.658258887990448	6.628558142256232	2125272
2126682	Logic	an evaluation of the lcf theorem prover using lotos	1989	4.949062564369371	5.98779771168133	2126709
2127513	Theory	newlines and lexer states	2000	4.7522024150851925	6.39501758991205	2127540
2127681	NLP	a compiler-based toolkit to teach and learn finite automata	2013	5.795091113036227	6.158999942884844	2127708
2128574	PL	typed quote/antiquote or: compile-time parsing	2011	4.644173496607777	7.1008289188355445	2128601
2129366	PL	a correctness proof of an indenting program	1983	5.223024287499705	7.066926965919589	2129393
2129410	SE	executable requirements specifications in a logic specification language spill-2	1994	6.147640571845463	6.017106446767912	2129437
2129957	SE	understanding and documenting programs	1982	5.9019669818461065	6.815859399088497	2129984
2130568	AI	sdml: a multi-agent language for organizational modelling	1998	5.656222535321382	6.224672375370513	2130595
2130613	Logic	state-space abstraction of concurrent programs: a means to computation-progressive scheduling.	1990	5.027385996536027	5.849717045709043	2130640
2131514	SE	characterising program behaviour with phases and transitions	1988	5.659751938725642	5.74170024004821	2131541
2131563	HCI	the electronic spreadsheet as a general-purpose programming tool	1985	5.964461242268398	6.1494910605828075	2131590
2132652	SE	a designer/verifiers's assistant	1979	5.538902613927008	6.405283486708658	2132679
2132701	Logic	abelian monoids versus concurrency - an algebraic approach to the specification of distributed systems	1988	4.5418555052031815	5.697862621641985	2132728
2133394	PL	towards differentiation-enabled fortran 95 compiler technology	2003	5.180633169473498	7.3147459468341705	2133421
2133465	PL	class encapsulation and object encapsulation: an empirical study	2010	6.241164865435686	6.992141628301527	2133492
2133536	DB	event specification in an active object-oriented database	1992	5.842202989942508	5.707685875701317	2133563
2133564	DB	on implementation and performance of table-driven dfa-based string processors	2006	4.929049064637253	6.020969034794584	2133591
2133751	Robotics	extensions of stochastic process algebras for performance and dependability modelling	1998	5.811630115717017	5.714274429038726	2133778
2134640	SE	formal specifications based on many-sorted initial algebras and their applications to software engineering	1988	5.156585247976538	6.191403485926238	2134667
2134775	DB	reverse engineering models from traces to validate distributed systems - an industrial case study	2007	5.694986249438255	5.758590476288577	2134802
2135423	Arch	the effect of the pdp-11 architecture on code generation for chill	1982	6.1826048071011925	6.660239350239915	2135450
2136367	Logic	a methodological scheme and tool for program transformation with transputer systems.	1993	5.107166397093427	5.537946336149044	2136394
2136507	PL	pattern synonyms	2016	4.976020568722335	7.235245578429621	2136534
2137466	Logic	signature matching: a key to reuse	1993	5.770330820180992	6.964864680663957	2137493
2137535	PL	object-oriented multi-methods in cecil	1992	5.957155701380218	7.256716700432753	2137562
2137689	PL	experimenting with the circus language for xml modeling and transformation	2002	5.716046609308858	6.153708900279264	2137716
2137928	PL	indirect addressing techniques in the design and implementation of an on-line file access program	1979	5.5384098667095305	6.6151759101626135	2137955
2138327	PL	a model for implementing euclid modules and type templates	1979	5.065897162205988	6.270569763773218	2138354
2138717	PL	generation of abstract programming interfaces from syntax definitions	2002	6.059099119851477	6.756462418639563	2138744
2138778	NLP	eco: a language composition editor	2014	5.968488516485849	6.259337998344287	2138805
2139080	NLP	mrg parser for visual languages	2001	4.64517253549454	6.33092593218916	2139107
2139417	Logic	models and proofs of protocol security: a progress report	2009	5.738437042587444	5.763775113485073	2139444
2139773	HCI	ltl store: repository of ltl formulae from literature and case studies	2018	4.398860132948141	5.595010061307495	2139800
2140851	OS	ways to implement computer algebra compactly	2011	5.511733709835652	6.590326297354346	2140878
2140853	PL	t: a dialect of lisp or, lambda: the ultimate software tool	1982	5.524596004823098	7.326524664218521	2140880
2140905	SE	using views to specify a synchronization aspect for object-oriented languages	2006	6.235251869742884	7.351468626418509	2140932
2141809	HCI	arrays and assignment in prolog	1987	4.6486021116722585	6.01643948777086	2141836
2142333	SE	threaded code for laboratory computers	1978	6.1691823747599255	6.363043453157941	2142360
2143120	PL	seven sorts of programs	1982	5.496491311078151	6.434066735180099	2143147
2143283	Theory	the need for improved programming language	1975	6.16429503656623	6.460079755702631	2143310
2143320	DB	orthogonal to the java imperative	1998	4.981013997190218	6.938848530686033	2143347
2143389	Arch	a grammar compiler for connected speech recognition	1991	5.02904541865949	6.4741107370788695	2143416
2144408	Comp.	algorithm implementation on specific microprogrammed structure	1980	6.07357822126234	6.120236269447713	2144435
2144414	AI	execution traces as a powerful data representation for intelligent tutoring systems for programming	2016	6.258473607508428	6.442981395048146	2144441
2145007	OS	an approach to the implementation of overlapping rules in standard ml	2000	5.802753307082044	7.028173995532455	2145034
2145102	Logic	metaphoric polymorphism: taking code reuse one step further	1996	4.995977631201836	6.854026613044287	2145129
2146837	PL	surveyor's forum: an error recovery	1977	5.389698682364869	6.682588798718497	2146864
2147024	Arch	isp: a notation to describe a computer's instruction sets	1973	5.5038709500864496	6.382561085301256	2147051
2147140	PL	the virtuality of constraints and the constraints of virtuality	1997	6.008491052426352	6.1107254032566765	2147167
2147298	PL	extending ordinary inheritance schemes to include generalization	1989	5.2315979000909785	7.3660248696159645	2147325
2147334	HCI	differences between modula-2 and pascal	1984	4.946498648659513	6.604037087547217	2147361
2147553	PL	an introduction to haskell with applications to digital signal processing	1994	5.314498058060567	6.766206662466569	2147580
2147742	PL	stream fusion on haskell unicode strings	2009	4.815803269067503	6.512405583571233	2147769
2147886	SE	introducing geometric algebra to geometric computing software developers: a computational thinking approach	2017	5.2268847590663805	6.0247976340516125	2147913
2148599	OS	specifying symbol instances	1976	5.582032656833444	6.237233268163866	2148626
2148842	EDA	intel 3000 and am 2900 microprocessors - a comparison	1977	6.195073577624076	6.0522778174402045	2148869
2148843	PL	direct execution of programs in floating code by address interpretation	1965	4.88839450560913	6.432237183179848	2148870
2149426	SE	practical metaprogramming	1992	5.9259583857925495	6.789810642536031	2149453
2149644	SE	java and object orientation: an introduction	1997	5.293357825090422	6.425211473155531	2149671
2149857	DB	workflow, transactions, and datalog	1999	5.88967733214592	7.268394025255168	2149884
2150582	PL	integrating abstract data types with object-oriented programming by specification-based approach	1988	6.08517665032974	6.7698829865854915	2150609
2150632	PL	automated program synthesis for java programming language	2001	6.019926500894767	7.291806138856233	2150659
2150783	PL	rules and strategies in java	2008	5.215440694600373	7.08284622240683	2150810
2151303	PL	adaptation-based programming in haskell	2011	4.620268471646322	7.3177193025952185	2151330
2151498	Metrics	fcp sequential abstract machine characteristics for the systems development workload	1990	5.795814301406086	5.572370657312394	2151525
2152013	OS	active learning for inference and regeneration of computer programs that store and retrieve data	2018	6.115453070202531	7.398073536832047	2152040
2152441	Logic	concurrent constraint programs to parse and animate pictures of concurrent constraint programs	1992	5.588299983138657	5.620346658571296	2152468
2152444	PL	pattern matches in hol: - a new representation and improved code generation	2015	4.473942006455483	7.248405319260978	2152471
2152732	ML	learning from the cell life-cycle: a self-adaptive paradigm	2010	5.5594394133291685	7.185827999605408	2152759
2152823	PL	flexible encoding of mathematics on the computer	2004	4.460201935049978	5.950234253531357	2152850
2154061	NLP	an hpsg parser with cfg filtering	2000	4.645864879289436	6.3234152774858865	2154088
2154272	PL	a framework for interactive proof	2007	6.214945534087335	7.2290591456571365	2154299
2154413	PL	the plain text trap when copying mathematical formulae	2016	5.750333562179838	6.152325020771066	2154440
2155922	PL	data parallelism in haskell	2013	5.037538273402566	7.083283478528808	2155949
2155947	PL	a formal way from text to code templates	2009	5.365335883366859	6.523053358283937	2155974
2156153	PL	the formal semantics definition of a multirate dsp specification language in hol	1992	5.1722531579650255	7.388372600270608	2156180
2156378	Robotics	pi-calculus modeling for cyberworlds systems using the fibration and cofibration duality	2008	5.8354996677256	6.695477707330348	2156405
2158181	AI	the denotational semantics of nipl	2001	5.337231244086059	6.682895056730796	2158208
2158251	Logic	algebraic methodology and software technology	2000	6.127141950268087	7.296469498480996	2158278
2158342	PL	towards cnc programming using haskell	2004	5.6047445925299195	7.0403870536843876	2158369
2159731	HPC	designing numerical libraries in fortran 90	1996	5.572101138706057	6.52242499707733	2159758
2159760	DB	compaction of large class hierarchies in databases for chemical engineering	1999	5.3636162185940135	6.823946999064179	2159787
2160961	AI	multi-paradigm java-prolog integration in tuprolog	2005	6.225360932572534	6.2552901357822215	2160988
2161248	Logic	synchronized regular expressions	2001	5.145017665867594	6.315570565943181	2161275
2161546	Logic	implementing control-flow structures in dataflow programs	1982	5.579122827758226	6.042680910820384	2161573
2161560	PL	solving the ttc 2011 compiler optimization case with grgen.net	2011	5.3803856360745925	7.068293087623322	2161587
2162170	PL	using linear positional grammars for the lr parsing of 2-d symbolic languages	1999	4.45742819843613	6.050837082319223	2162197
2162292	PL	synthesizing bijective lenses	2017	4.780715249324194	7.304464546929588	2162319
2162631	Logic	remarks on language concepts for specifying process synchronization	1982	5.494319775952863	6.9486959100969425	2162658
2163462	SE	the theory and practice of runtime reflection - a model-based framework for dynamic analysis of distributed reactive systems	2008	5.552923631465007	5.740248233131622	2163489
2163723	Logic	refactoring design models for inductive verification	2002	6.149323049231469	6.946756748398726	2163750
2164238	SE	an mcl algorithm based technique for comprehending spreadsheets	2008	6.175504556815505	6.7198576814635125	2164265
2164560	PL	types that reflect changes of object usability	1997	5.712661895011626	7.39124530044821	2164587
2164691	AI	models for evaluating interaction protocols in speech recognition	1991	6.0694558243879655	7.4083084528901875	2164718
2164813	Robotics	dotrl: a platform for rapid reinforcement learning methods development and validation	2013	6.255474990707419	5.9262452900300815	2164840
2165781	PL	objective: in minimum context	2003	4.916136203656001	6.98669748393744	2165808
2166227	ML	the structures of the ncc simula compilers and bench mark comparisons with other major languages	1972	5.509931500685242	5.731486738498642	2166254
2166528	ML	language architecture -- obsolescence and deletions	1996	6.20321996112389	6.790696457248294	2166555
2168108	ML	token swap test revisited	2003	4.564795839349971	6.623514802011452	2168135
2168263	AI	tkwinhol: a tool for window inference in hol	1995	4.702295263917538	6.555115748314125	2168290
2169013	Embedded	from low level to model based and constructive worst case execution time analysis	2004	5.660152003863868	5.564661140490701	2169040
2169711	PL	an introduction to algebraic effects and handlers. invited tutorial paper	2015	4.608143742034842	7.024634482614286	2169738
2169858	ML	static analysis of binary executables using structural svms	2010	5.859849011166274	6.8137617372789645	2169885
2170524	PL	quantified interference for a while language	2005	4.474594697050099	5.905809870722401	2170551
2171943	NLP	mdp environments for the openai gym	2017	5.532000221879074	5.853822307067432	2171970
2172091	PL	the mechanics of the grammatical framework	2011	4.9704199218390235	6.4772229385023845	2172118
2172161	AI	data base system for ai applications	1977	5.991708142799856	6.283304158977512	2172188
2172484	EDA	petri net based models for the specification and validation of protocols	1984	5.740316957461555	5.618148757087768	2172511
2172505	ML	gib: steps toward an expert-level bridge-playing program	1999	4.726507828481114	5.594773063640568	2172532
2172853	Theory	an analysis of the iso ftam basic file protocol specified in lotos	1995	6.249574245916512	5.970226416316931	2172880
2172993	DB	regular expressions with nested levels of back referencing form a hierarchy	1998	5.431628930011176	6.515905244789716	2173020
2173038	PL	zipper-based attribute grammars and their extensions	2013	4.625165740880252	7.423727324505851	2173065
2173416	AI	partial evaluation, programming methodology, and artificial intelligence	1984	4.799863376855903	6.30093178511021	2173443
2173505	Arch	jlab: integrating a scripting interpreter with java technology for flexible and efficient scientific computation	2009	6.122963130296213	7.092220053847545	2173532
2173523	NLP	chef: a versatile portable text editor	1981	5.777856170445436	6.1607507366290255	2173550
2173631	Logic	formal analysis of smart home policies using compositional verification	2009	5.685519696759819	5.690651233264312	2173658
2173722	PL	evolutionary data conversion in the pjama persistent language	1999	5.58161199448806	6.917895144326105	2173749
2174090	HCI	a visual language for the design of structured graphical objects	1996	5.7926133624888445	7.2075476674723635	2174117
2174152	PL	the share 709 system: machine implementation of symbolic programming	1959	5.001877822789278	6.276803433547868	2174179
2174318	Arch	norma: a graph reduction processor	1986	4.960556139310841	6.638656087752995	2174345
2175169	HPC	implementation of an event driven scheme for visualizing parallel execution of logic programs.	1992	5.9205558117996855	6.934311188570202	2175196
2175226	NLP	from english descriptions of algorithms into programs	1977	5.096623080241408	6.1738710058643775	2175253
2176084	DB	a correctness assurance approach to automatic synthesis of composite web services	2014	6.207358536507306	6.080357288379625	2176111
2176205	PL	an alternative to current looping syntax	1984	5.6221068424822915	6.708187661522925	2176232
2177170	PL	a statement-oriented approach to data abstraction	1981	5.3927936545778135	6.780683028976389	2177197
2177298	DB	behaviour management in database applications	1987	6.229981707983546	5.592453900708508	2177325
2177798	EDA	prolog at the university of illinois	1988	5.021777774726648	6.342240832055043	2177825
2178816	PL	realization of natural language interfaces using lazy functional programming	2006	5.853094170950531	6.3519006558784925	2178843
2179009	PL	making pvs accessible to generic services by interpretation in a universal format	2017	4.595868291155547	6.852728181080573	2179036
2179062	SE	computational linguistic motivations for a finite-state machine hierarchy	2003	5.842717021767667	6.421427051559812	2179089
2179280	Logic	a synthesis of two approaches for verifying finite state concurrent systems	1992	4.684561869963184	6.076099044856151	2179307
2179339	PL	symbolic trajectory evaluation	1997	6.068970595641417	7.4305646142339326	2179366
2179454	PL	dynamic, instance-based, object-oriented programming in max/msp using open sound control message delegation	2011	5.584965622639994	7.399947980784968	2179481
2179881	PL	ttt - a simple type-checked c language abstract data type generator	1998	5.3665078315929975	5.8581324595416975	2179908
2180351	DB	prospero: a system for representing the lazy evaluation of functions	1992	4.477481159188813	6.910250518015715	2180378
2180855	Robotics	object-based process planning in automatic manufacturing environments	1987	5.695774776638094	6.134873292910564	2180882
2180923	DB	higher-level genericity in object-oriented databases	1994	4.7736213927432685	6.208472865845961	2180950
2180994	EDA	cutting-edge timing analysis techniques	2010	5.946100465226961	6.9210710448609545	2181021
2181199	PL	sisal 3.2 language features overview	2011	4.822556117220687	7.2433912102938525	2181226
2181839	PL	extended ml: past, present, and future	1990	5.989098664175843	6.727009618742509	2181866
2183708	PL	recognizing a program's design: a graph-parsing approach	1990	5.348575932569274	6.382321771682416	2183735
2183859	SE	transportable package software	1980	6.250690223007326	6.578748885591335	2183886
2184072	PL	converting intermediate code to assembly code using declarative machine descriptions	2006	5.432825767155629	7.060342180983651	2184099
2184253	PL	extending a functional programming system for embedded applications	1995	5.776599368618935	7.438996467773143	2184280
2185186	PL	parsing languages by pattern matching	1988	4.830407506614918	6.7529686716002635	2185213
2186360	SE	where does goto go to?	1996	5.481205874805712	6.734546344135042	2186387
2187034	DB	construction of a peephole optimizer	1981	5.361442100399846	7.313753841880969	2187061
2187072	ECom	object-oriented tree traversal with jjforester	2001	6.163029638149023	6.9147793828986925	2187099
2187139	Graphics	a general filter design language with real-time parameter control in pd, max/msp, and jmax	2003	5.042082947197674	6.290514451150882	2187166
2187896	SE	research on axiom system and transition rules of software reliability and safety	2009	5.636391705683211	6.199223682259015	2187923
2188143	DB	universality in two dimensions	2016	5.662076064605439	5.6891517330595	2188170
2188530	PL	a framework for numeric analysis of array operations	2005	4.453911551940722	7.287649231965912	2188557
2189277	PL	a transportable programming language (tpl) system-ii: the bifunctional compiler system	1990	5.412833486924842	6.832527656859937	2189304
2189355	PL	a survey of software for partial differential equations	1980	6.2903775723228845	5.538156975390988	2189382
2189539	AI	executing conceptual graphs	1998	5.743597250388236	6.6854649246910895	2189566
2189854	PL	transformation of attributed trees using pattern matching	1992	4.9343875914118165	6.694452299383272	2189881
2191017	PL	yi: an editor in haskell for haskell	2008	5.769964851504331	7.046035337011579	2191044
2191493	PL	specification of a functional synchronous dataflow language for parallel implementations with the denotational semantics	1996	4.97767956619384	6.167429223693107	2191520
2192527	Logic	nautilus, a diagrammatic specification and programming language	2002	5.164020435252351	7.108161447240128	2192554
2192571	Graphics	programmed methods for printer graphical output	1962	6.301560564491763	5.7577510420651965	2192598
2192640	Logic	seque: a programming language for manipulating sequences	1988	5.143015618224205	6.119839105447237	2192667
2193035	SE	computational treatment of temporal notions: the cttn-system	2005	5.626019556167077	6.192825522576975	2193062
2193420	PL	a new programming language: galilei	1984	5.578988065011621	6.5108753346681345	2193447
2193517	PL	implementing java compilers using rerags	2004	5.735020457458933	7.42764318848543	2193544
2193788	Robotics	towards a unified behavior trees framework for robot control	2014	6.083482726367529	7.211768484782387	2193815
2193911	Arch	performance of lisp systems	1982	6.211624130473857	6.329849328443447	2193938
2195546	Logic	a constraint language and its interpreter	1986	4.925352268622059	6.382763623911169	2195573
2195983	EDA	a fortran extension to facilitate proposal preparation	1964	6.050516815311038	6.359230962355719	2196010
2196019	PL	incremental packrat parsing	2017	5.0894343151228965	7.390858329625647	2196046
2196102	PL	modular reifiable matching: a list-of-functors approach to two-level types	2015	4.387171250292103	6.661399742258508	2196129
2196115	Theory	real-time simulation of mapping radar	1962	4.8382272281970815	6.320630330031738	2196142
2196154	SE	teaching assembly-language programming: a high-level approach	1983	6.175521902803774	6.913812005796461	2196181
2196542	Logic	a preprocessor based implementation of common lisp	1990	5.9730732314910435	6.536222033315246	2196569
2197273	PL	tatoo: an innovative parser generator	2006	5.9459605561036755	6.751755699493796	2197300
2198280	Theory	analysis and synthesis of sorting algorithms	1972	4.7010410948358325	5.611433128748241	2198307
2198475	PL	modularity meets inheritance	1992	5.5569011035722555	7.027585008935831	2198502
2198831	Crypto	data flow analysis of secure information-flow	2002	5.3040867144476005	5.70230815963567	2198858
2200786	PL	relation algebra as programming language using the ampersand compiler	2018	5.7174016822261295	6.546954847173665	2200813
2201623	DB	java interface for relaxed object storage	2013	6.151147609409766	7.339149775855937	2201650
2201635	Logic	a testing theory for lotos using deadlock detection	1989	5.470973124545752	5.929888779305706	2201662
2201741	PL	formalization of the control stack	1989	5.068943310491047	6.376618917445514	2201768
2201759	PL	partial evaluation of the reversible language janus	2011	4.501557644660863	7.1221601827922365	2201786
2202061	AI	clue deduction: professor plum teaches logic.	2006	4.499094387787633	6.114234029261987	2202088
2202450	DB	interactive modeling for batch simulation of engineering systems: a constraint satisfaction problem	2001	5.1183512756369325	5.700831279963724	2202477
2202658	PL	towards om - an object-oriented implementation of mantra.	1999	4.911623409900425	6.218346220571666	2202685
2202909	Crypto	proposal for gks output level 3 segment hierarchy and editing	1984	5.680430876794981	5.608572290022737	2202936
2202969	PL	a dimension abstraction approach to vectorization in matlab	2007	5.2077887468646535	6.709424429574241	2202996
2203006	DB	improving round-off in runge-kutta computations with gill's method	1970	5.945720080554367	6.267472693699872	2203033
2203929	Logic	traces, interpolants, and automata: a new approach to automatic software verification	2015	4.484499245186863	5.797464379842531	2203956
2204039	Embedded	language and operating system features for real-time programming	1988	5.573285922468462	6.992091466573707	2204066
2204612	DB	implementation of a structured english query language	1975	5.685736015315716	6.047871592490548	2204639
2205231	PL	an extended bnf for specifying the syntax of declarations	1969	4.872843476121852	6.682743735262719	2205258
2206134	SE	class schema evolution for persistent object-oriented software: model, empirical study, and automated support	2013	6.200420854343423	7.1102548946662525	2206161
2206699	Graphics	list tracing in systems allowing multiple cell-types	1971	4.41466761496155	5.879733182532148	2206726
2206937	NLP	topological composition systems: specifications for lexical elements of visual languages	1991	4.771942820278303	5.542795863963064	2206964
2207198	PL	mutual recursion in algol 60 using restricted compilers	1973	5.0142926077676915	6.4964596155983445	2207225
2207347	PL	compact recursive-descent parsing of exptressions	1985	4.645428665228354	6.525981855750567	2207374
2207718	EDA	property set exhaustiveness estimation approach for bmc-based formal hardware verification	2007	5.223523625922849	5.588617369215556	2207745
2208019	PL	beyond ada 95: the addition of persistence and its consequences	1996	6.129262544666593	7.356091778659403	2208046
2208250	PL	a type-checking program linkage system for pascal	1978	5.671995054295195	7.033525810573653	2208277
2208407	PL	blending imperative and relational programming	1991	5.855565247927974	6.5924300200388215	2208434
2208560	DB	an algebraic theory of object-oriented systems	1994	6.003904635238191	7.3507229798985625	2208587
2209142	AI	advanced parser-generation technology for ai language applications	1992	5.470028449428907	6.911472620118738	2209169
2209221	Web+IR	theoretical considerations in information retrieval systems	1964	5.13930493056986	5.902077014041949	2209248
2209349	PL	a framework for datatype transformation	2003	4.807343009009879	7.147518076534807	2209376
2209401	AI	progress in clasp series 3	2015	5.121359778590938	6.135764651438385	2209428
2209854	NLP	sql translation using an attribute grammar	1993	4.71639896838634	5.990422749544308	2209881
2210134	Visualization	visbdd - a webbased visualization framework for obdd algorithms	2001	5.789285942346525	5.829515807095268	2210161
2210231	SE	concurrency annotations for reusable software	1993	5.4819670236573295	7.426406761572069	2210258
2210999	HPC	a comparison of the fortran language implementation for several computers	1966	5.857227503619965	5.855348943055757	2211026
2212197	PL	semantic inlining - the compiler support for java in technical computing	1999	5.445798397232542	5.687696986555596	2212224
2212253	Logic	event-based transformations of capacities and invariantness	2018	5.885535336916035	5.5855104603839125	2212280
2212534	Logic	moby/rt: a tool for specification and verification of real-time systems	2003	5.551914545784826	5.618512819434716	2212561
2212730	PL	reconciling virtual classes with genericity	2006	5.467022538439113	7.230181483496738	2212757
2213514	SE	an object-oriented approach to the acquisition of software engineering knowledge	1991	4.999134000315645	6.756650233627633	2213541
2213630	PL	the assignment axiom and programming language design	1976	5.179015130525456	7.273788932069514	2213657
2214294	AI	retwall: an expert system for the selection and preliminary design of earth retaining structures	1987	4.883799495689201	5.7052714400908355	2214321
2214516	HPC	can machines truly think	2015	6.063221871133809	5.551454438719201	2214543
2214721	HCI	friendly-wam: an interactive tool to understand the compilation of prolog	1992	5.4077204263867324	6.8671664497651115	2214748
2214780	SE	research report: analysis of software for restricted computational environment applicability	2016	4.841810333664881	6.941872114329637	2214807
2214874	Embedded	the use of automata in modelling and building a real-time component based system	2001	6.145680978414293	6.497841552023803	2214901
2216249	SE	the predictive analyzer and a path elimination technique	1965	4.962887908841862	5.798832918639842	2216276
2216479	Robotics	evolving complex robotic behaviors using genetic programming	2006	6.16710524844611	5.960872791511672	2216506
2217097	PL	on synthesizing behavior that is aware of semantical constraints	2008	6.240285012330607	7.4162393556660415	2217124
2217731	Embedded	behavior computation for smart grid software analysis	2011	6.285996474657521	7.4274990052902625	2217758
2218470	Logic	relating diagrams to logic	1993	5.162422111862397	6.252889641760713	2218497
2219216	PL	python: a gui development tool	1995	5.930119554952066	6.5168597048972305	2219243
2219313	PL	building an object oriented computational algebra system based on design patterns	2005	4.649763050292107	7.056365907635206	2219340
2220040	SE	path-sensitive alias analysis for data flow testing	1999	5.654707674133705	7.044417975799026	2220067
2220220	PL	pictures as invariants	1991	6.0849054551048205	6.625335533657684	2220247
2220493	PL	"""an introduction to the verification oriented microprogramming language """"middle"""""""	1978	5.161094267285928	6.746094599049237	2220520
2220516	SE	grammar characterization of flowgraphs	1980	5.694826146471282	7.167770274524052	2220543
2220851	AI	sequencel provides a different way to view programming	1998	5.135233887542472	6.197892310900707	2220878
2221051	PL	smp - a symbolic manipulation program	1981	5.653680324695034	6.1179519970082605	2221078
2221108	AI	a standardized microprogram sequencing control with a push down storage	1972	4.782846911126478	6.398643148270848	2221135
2222189	DB	secondo/qp: implementation of a generic query processor	1999	4.5976630723372365	5.9755342417372725	2222216
2222454	SE	the design of a rewrite rule interpreter from algebraic specifications	1987	4.692907256148918	7.291753585538392	2222481
2222700	SE	reactive object queries: consistent views in object-oriented languages	2016	6.2483063967095935	6.3983654838503625	2222727
2223579	PL	grace's inheritance	2017	5.4918127663433	6.95072398301375	2223606
2223778	AI	extensible automated constraint modelling	2011	5.826445841783003	6.2213895486792286	2223805
2224188	Arch	an algol-like assembly language for a small computer	1971	5.6456786226195605	6.650349060409441	2224215
2224268	DB	research on computer-assisted generation of image processing algorithms	1988	6.141732511529336	5.694895159094081	2224295
2224987	PL	higher-order rewriting for executable compiler specifications	2010	4.853146254879368	7.378878750016239	2225014
2225112	AI	verification of stochastic systems by stochastic satisfiability modulo theories with continuous domain (cssmt)	2015	4.434049641590423	5.674126722166713	2225139
2225282	NLP	modelling the temporal summation of neural membranes using the ada language	1991	5.6550397002663875	5.747109857274723	2225309
2226728	PL	module types, module variables, and their use as a universal encapsulation mechanism	1994	4.9445460634386835	7.140175737575643	2226755
2226807	PL	the design and implementation of kaleidoscope'90-a constraint imperative programming language	1992	4.617242032774219	7.028815427640245	2226834
2227375	Security	casting in c++: bringing safety and smartness to your programs	1996	4.518601470850755	6.980935511882103	2227402
2227716	Logic	right-to left code generation for arithmetic expressions	1982	4.4517738839265215	6.8639726811023625	2227743
2228252	OS	generalized path expressions: a high-level debugging mechanism,	1983	5.944924717224313	6.426106123542419	2228279
2228888	Robotics	basic set of behaviours for programming assembly robots	1995	5.632530576902963	6.302574374365095	2228915
2229089	NLP	wfsc - a new weighted finite state compiler	2003	4.632640254751795	6.566215182123664	2229116
2229185	SE	mondex: engineering a provable secure electronic purse	2011	5.586652860206307	5.758118837582817	2229212
2229414	PL	functional programming in xslt using the fxsl library	2003	5.2561657195608245	7.383407251300682	2229441
2229619	PL	correspondent computing	1988	5.022603782593372	7.068260186349387	2229646
2229929	PL	towards a purely functional debugger for functional programs	1995	5.911873399988147	7.420057718507812	2229956
2230323	PL	logic programming in the context of multiparadigm programming: the oz experience	2003	4.417966498141057	6.924561950632743	2230350
2230984	DB	procedurally oriented programming techniques in prolog	1986	4.516968872392427	6.352468779641672	2231011
2231531	AI	information-passing and belief revision in multi-agent systems	1998	4.721213496375534	7.420312744576317	2231558
2231843	DB	w.a.r.p.-adb: a board family for fuzzy logic applications development	1996	5.9598251119153405	6.388416710404145	2231870
2232405	SE	impact of limited memory resources	2008	5.706014305782998	6.493526034466281	2232432
2232455	AI	a rule-based approach for simulation errors in discrete sequential processes	1989	5.660504756259308	6.554867530598247	2232482
2232697	PL	scoping constructs for software generators	1999	6.101762057601006	7.4416925639924285	2232724
2232713	PL	an overview of the horne logic programming system	1983	4.7144334140761135	6.270645839147824	2232740
2232974	DB	what do we want from a high-level language?	1982	6.073621717667472	6.152169026006434	2233001
2233200	Embedded	software prototyping using the setl programming language	1984	5.5112973730409145	5.934707853902168	2233227
2233221	SE	numerical constraints for combinatorial interaction testing	2012	5.109636946593096	5.559575922301256	2233248
2233855	PL	the philosophy of nothing and everything	1995	5.136587830080225	6.620079491573883	2233882
2234100	AI	programming multi-agent systems in 3apl	2005	6.035186179259871	6.596878753942355	2234127
2234321	PL	post-design domain-specific language embedding: a case study in the software engineering domain	2002	5.432021338731773	7.154952335322187	2234348
2234777	PL	abstract semantics for a higher-order functional language with logic variables	1992	4.509069581628606	5.975198198580017	2234804
2234843	PL	the lambda library: unnamed functions in c++	2003	4.902576818446759	7.085985533295982	2234870
2234903	PL	a data abstraction alternative to data structure/algorithm modularization	1998	6.2220080463926974	7.205511494172952	2234930
2234988	AI	the multilang on-line programing system	1967	5.9154179315449635	6.068074075395982	2235015
2235409	PL	an environment for building prolog programs based on knowledge about their construction	1994	4.63434591616288	6.483647650296612	2235436
2235439	PL	from a functional point of view: a framework for extensions to apl	1987	4.818102048783586	5.641013935779588	2235466
2235489	PL	attribute grammars and data-flow languages	1983	5.417481482802988	7.1464773418806224	2235516
2236069	Logic	modeling, specification, and verification of automaton programs	2008	5.36903381969137	7.119582606811543	2236096
2236431	Logic	formal verification in a commercial setting	1997	6.075991776583459	6.275670266755349	2236458
2236665	Robotics	algorithms of reduced complexity to design control sequences for untimed petri nets in varying and uncertain environments	2018	5.046489069093521	5.610602187422268	2236692
2236933	SE	performance analyses of paging algorithms for compilation of a highly modularized program	1981	5.694541712785608	5.828437489978433	2236960
2237074	DB	metalanguage and syntax specification	1965	4.486484129048857	6.371062090726991	2237101
2237257	NLP	a unified and synchronous generating system for multiple natural languages based on cfg and semantic language	2012	4.752042745951085	5.621514382268368	2237284
2238072	Graphics	toward natural language computation	1980	5.370990099860644	6.227788207581539	2238099
2238127	PL	code generation using tree matching and dynamic programming	1989	4.5198888828905766	6.751742558579266	2238154
2239622	PL	a model for mathematical analysis of functional logic programs and their implementations	1994	4.454053961053972	7.0118965576683605	2239649
2239636	Logic	tree notation: an antifragile document format	2017	5.8007883287171484	5.939157549822791	2239663
2239770	Arch	addressing in a persistent environment	1989	4.983692572753762	7.204657063252418	2239797
2239882	PL	an algebraic theory of class specification	1994	4.792671759314277	7.259923876638071	2239909
2240680	EDA	visual logic programming method based on structural analysis and design technique	2007	6.198728576763167	7.381139820088395	2240707
2241087	Logic	the design of an abstract machine for efficient implementation of contexts in logic programming	1989	4.588950258999441	5.751515309621687	2241114
2242076	SE	a specification of the intel 8085 microprocessor: a case study	1987	6.026853693010287	7.312588715154332	2242103
2243250	ML	recursion vs. iteration: an empirical study of comprehension revisited	2015	5.989295731141311	6.155040707676138	2243277
2243551	DB	database queries that explain their work	2014	5.6184633218064715	7.050900084184621	2243578
2243719	HPC	fast linear transformations in python	2017	5.193322661481821	7.2262686949857615	2243746
2243872	PL	extensible records in idris	2017	5.4783632348992946	7.428359640000219	2243899
2244387	Logic	modeling petri net based systems by net transformations: new developments	2003	5.062365678796616	6.0662687610062935	2244414
2244712	HCI	format-free input in fortran	1963	5.225616666097545	5.854167367731144	2244739
2245031	PL	data representation synthesis	2011	4.833329600078078	7.254927217132693	2245058
2245123	PL	error data values in the data-flow language val	1982	5.0347799230347245	7.334761369270708	2245150
2245803	AI	performance tuning in answer set programming	2015	5.146954254837127	6.781630451539368	2245830
2246216	Robotics	programming mobile intelligent agents: an operational semantics	2004	5.665139595071984	6.639563280951491	2246243
2246253	SE	signs and formal concepts	2004	5.727383276085014	6.706250274801813	2246280
2246419	Arch	lisp on a reduced-instruction-set-processor	1986	5.677511731086898	6.541350620446591	2246446
2247347	Logic	tests and proofs	2016	5.904485111058764	6.089610753800236	2247374
2247676	EDA	extracting models from design documents with mapster	2008	5.647240252074512	6.785638668950792	2247703
2247798	Logic	comments on f. de cindio, g. de michelis, l. pomello and c. simone	1982	5.468981618378963	7.417447315271215	2247825
2248971	EDA	a preprocessor based module system for prolog	1989	6.2173489602875085	7.104309809369849	2248998
2249082	PL	objective ml: an effective object-oriented extension to ml	1998	4.645004945760395	7.052528603272577	2249109
2249548	PL	scrap your nameplate: (functional pearl)	2005	4.447396779490472	7.371269963920898	2249575
2249597	Logic	tuning sat for formal verification and testing	2004	5.458748634474341	5.618181624453068	2249624
2249627	PL	data abstraction and the correctness of modular programming	1986	5.705799667253952	5.638408515812923	2249654
2249855	PL	notes on c programming for apl programmers	1991	6.215899610524451	6.403953411737588	2249882
2249864	Logic	compositional security-preserving refinement for concurrent imperative programs	2016	4.707204381339551	5.963228597252133	2249891
2249941	PL	the push3 execution stack and the evolution of control	2005	5.115932059547314	6.414122443592285	2249968
2250382	HCI	algebra diagrams: a handi introduction	2012	6.1200170998289405	5.723160803376192	2250409
2251136	PL	chapter 5 dynamically typed languages	2009	6.262523404027727	6.857780712301378	2251163
2251560	SE	on the performance of cobol programs in large vs. mini computers	1982	6.098048180929647	6.3062102715114055	2251587
2251567	Crypto	mace4 and sem: a comparison of finite model generators	2013	5.207963443193512	6.079148444250502	2251594
2251742	PL	a functional intermediate form for diverse source languages	1996	5.364793831534441	7.0930934769922445	2251769
2252002	EDA	standardisation of formal description techniques for communication protocols - response	1986	6.2143485374235885	5.666703619764644	2252029
2252096	PL	some desirable properties of data abstraction facilities	1976	4.631526093391155	6.857628432268449	2252123
2252534	Logic	formal verification of model refactorings for hybrid control systems	2018	6.131799677609657	6.012857540720426	2252561
2253174	PL	the bliss programming language: a history	2002	5.289701881688307	6.5644358484161875	2253201
2253217	AI	a verified asml implementation of belief revision	2008	6.062128437934395	7.142898840266676	2253244
2253406	OS	a single model for files and processes	1986	5.813538631376012	6.283640348804999	2253433
2253696	PL	efficient integration of declarative paradigms into symbolic computation systems.	1994	4.4833266520750055	7.274045592491674	2253723
2253802	PL	java interfaces in cs 1 textbooks	2006	5.8218726145172015	6.873328478928933	2253829
2254400	PL	"""prolog in """"c"""""""	1990	4.980665876834866	7.002295283268218	2254427
2254486	DB	simple object oriented designed computer algebra system	2008	5.7953269524648885	6.29582156935252	2254513
2255057	Arch	the design and implementation of c-like language interpreter	2011	6.009542035153612	7.255991092517728	2255084
2255680	Crypto	verification of the iso rose protocol specified in estelle	1994	6.242768555925173	5.700246914271895	2255707
2256011	SE	computational analysis of a power distribution system with petri nets	2010	6.216148829466738	7.247399298887035	2256038
2256366	AI	justifying reliability claims for a fault-detecting parallel architecture	1997	5.7674244127883325	6.224829512202934	2256393
2256522	SE	supermac-a macro facility that can be added to existing compilers	1980	5.833270091910998	6.866641409212889	2256549
2257082	PL	efficient high-level iteration with accumulators	1989	4.614846087506847	7.2783669011306475	2257109
2257416	PL	julia subtyping: a rationalreconstruction	2018	4.579954641767531	7.426709736340376	2257443
2257934	PL	architecture software using: a methodology for language development	1998	4.464958000332022	7.09284597913656	2257961
2258144	EDA	efficient stochastic simulation of reaction–diffusion processes via direct compilation	2009	6.221769606336495	7.026493412143017	2258171
2258612	PL	a correspondence between denotational semantics and code generation	1982	5.2074766138954045	5.533405424706761	2258639
2260211	HPC	a technological review of the fortran i compiler	1982	6.098692479555721	6.026400666067532	2260238
2262387	OS	an imperative sentence processor for voice interactive office applications	1985	5.965590311737622	6.34067078943215	2262414
2262396	SE	an approach to model checking asml specifications	2005	5.961879327010816	6.030697475143835	2262423
2262483	PL	a parameterized cost model to order classes for class-based testing of c++ applications	2003	5.079315968248496	6.992525497306037	2262510
2262664	SE	maintaining behavioral consistency during schema evolution	1993	5.111433097702097	6.203811748288808	2262691
2263060	Embedded	hume: a domain-specific language for real-time embedded systems	2003	4.681830530737342	7.083503886863817	2263087
2263203	Crypto	fire lite: fas and res in c++	1996	4.7584566726317625	6.281652586597577	2263230
2263552	SE	understanding cobol systems using inferred types	1999	5.8863237035575455	7.338931623617157	2263579
2264034	HCI	68000 assembly language programming: a structured approach	1986	5.8639559866610025	5.631518564514265	2264061
2265152	PL	object structuring techniques	2000	6.1796689403204965	6.806468883225675	2265179
2265161	SE	a graphical fp language	1987	6.290643199173329	6.527256330933277	2265188
2265361	DB	the relational model for database management, version 2	1990	5.0844899380107655	6.265162538067755	2265388
2265386	HPC	embedded-dsl-like code generation and optimization of bayesian estimation routines with user-defined source-to-source code transformation framework xevolver	2017	5.045458741619218	6.645523722734697	2265413
2265464	DB	voltaire: a database programming language with a single execution model for evaluating queries, constraints amd functions	1993	5.129041386338923	7.02247305640217	2265491
2268812	PL	tree-structured programs	1973	4.805684849944714	6.0783461793977285	2268839
2269041	SE	algorithm visualization using concrete and abstract shape graphs	2008	5.781583387404816	7.310376350058317	2269068
2269620	PL	optimizing a rule engine using adaptive programming techniques	2006	5.721304049201352	5.595420897483555	2269647
2269623	PL	the compiler design handbook: optimizations and machine code generation	2002	5.779268418745684	6.716467400587044	2269650
2270352	AI	let a single flwor bloom	2007	4.550281376958655	6.165539932337227	2270379
2270856	PL	a microprogrammed implementation of euler on ibm system/360 model 30	1967	5.4272704336385225	6.652110592372563	2270883
2271153	PL	operational calculus on programming spaces and generalized tensor networks	2016	4.543686415130899	6.937493320078289	2271180
2271406	NLP	using graph transformation for puzzle game level generation and validation	2016	4.622056915211758	6.909094118456753	2271433
2271433	Arch	notes on the implementation of parlog	1985	4.456150205154813	7.435536532182972	2271460
2271662	PL	implementation of operational calculus on programming spaces with applications	2016	4.699861085660914	6.977780302937533	2271689
2271756	PL	the turing programming language	1988	4.951998722468239	6.130018510736826	2271783
2271999	Logic	liveness for synchronized choice petri nets	2001	5.034114045725588	5.719796499939176	2272026
2272256	PL	haskell 98 libraries: dates and times	2003	5.226028573442443	5.542426776861314	2272283
2272653	PL	a facility for the downward execution of a high-level language	1982	5.5360262040567445	7.430340317350413	2272680
2273472	PL	semantics first! - rethinking the language design process	2011	5.550360257605238	6.959027153492237	2273499
2273828	Logic	arch-comp17 category report: continuous systems with nonlinear dynamics	2017	4.765996396918128	6.100161598222018	2273855
2273945	HCI	parallel compilation: a design and its application to simula 67	1978	5.953086314571526	7.052526084712135	2273972
2274290	PL	experience report: a haskell interpreter for cellml	2007	5.33840325957028	7.410356258049312	2274317
2275407	PL	programming and designing essentials of c language and object-oriented language	2013	6.0923262556740765	6.584455917321794	2275434
2276190	Theory	linking other theorem provers to hol using pm: proof manager	1992	4.756634531962601	6.7820424642346095	2276217
2276839	SE	incremental reasoning for object oriented systems	2004	5.6366220840448165	7.294203159309068	2276866
2277157	PL	attributed grammars as a specification method	1991	5.75096075775481	6.657471348389873	2277184
2277517	EDA	design and implementation of the .net msil-to-java oolong il translator for embedded systems	2004	5.982358697252816	5.7845176176789925	2277544
2277551	HPC	semantics column	2018	5.1348090813571385	6.085266605602027	2277578
2278179	Robotics	digital chips network simulation using object oriented programming	2002	5.782060345551763	5.9432389271721355	2278206
2278271	PL	the optimization of user programs for an algebraic manipulation system	1981	4.696854091015277	5.811700932538141	2278298
2278491	Logic	a comparative study of pending event set implementations for pdevs simulation	2015	5.809972958245909	6.225662013775112	2278518
2278593	Logic	communicating sequential processes with flexible parallel termination semantics	2005	5.0189684479193115	5.5566186623407035	2278620
2278691	PL	lazy functional languages: abstract interpretation and compilation (geoffrey burn)	1993	4.573243855859811	6.203533904083849	2278718
2279000	AI	an iterative approach to synthesize data transformation programs	2015	5.447639849703722	6.212714390992571	2279027
2279536	PL	formal reasoning using an iterative approach with an integrated web ide	2015	6.162113533570802	7.447987755328225	2279563
2280534	AI	a framework for on-line detection of custom group movement patterns	2013	4.5411440890519765	7.100979289095857	2280561
2280692	PL	technique for extracting keyword based rules from a set of programs	2005	4.759296555181642	6.3863285912873495	2280719
2280864	SE	2ls for program analysis - (competition contribution)	2016	4.708807174905403	6.656909609363482	2280891
2280898	Theory	structure and use of algol 60	1962	5.4211787175098936	6.139819987150656	2280925
2281276	DB	automatic data structure choice in a language of very high level	1975	4.588924373726764	6.585047230659312	2281303
2281349	PL	an abstract data type for name analysis	1991	4.965476820438934	7.094968273683437	2281376
2281708	PL	towards a demonstrably-correct ada compiler	2007	5.3699795589600825	7.1408846323876825	2281735
2282570	PL	on the need for a popular formal semantics	1997	6.142594147198827	6.6176026392862495	2282597
2282630	HCI	enhancing prolog to support prolog programming environments	1988	5.377663184265604	6.835996575870262	2282657
2283075	HCI	inherent vs. accidental vs. intentional difficulties in programming	2011	5.799206130516287	7.173926784260932	2283102
2283132	HPC	description of the ltg system used for muc-7	1998	5.888325908260557	6.680886327166419	2283159
2283307	HCI	microprocessor debugging techniques and their application in debugger design	1987	6.0027602802313185	6.8589112722043755	2283334
2283967	Embedded	a comparison of self-contained and embedded database languages	1987	4.960971341743361	5.987295450779572	2283994
2284076	PL	on the use of executable assertions in structured programs	1987	5.561870446567746	7.444836277445036	2284103
2284998	PL	macro processing in high-level languages	1992	5.0661120210423825	7.281551957023928	2285025
2285084	PL	will we think in programming languages?	2012	5.847322707786735	6.520221521247161	2285111
2285127	EDA	macro language design for system/360	1966	5.593912760343874	6.833958804126673	2285154
2285504	HPC	a portable file directory system	1980	6.282947938128638	6.439925075052162	2285531
2285804	PL	static object race detection	2011	5.0107648688034185	5.727501381429504	2285831
2285864	PL	pl360, a programming language for the 360 computers	1968	6.23624972945297	6.317645801915621	2285891
2288716	Robotics	integrating refinement-based methods for developing timed systems	2016	5.035233483617792	5.818532927009675	2288743
2289329	Robotics	periphrase: lingware for parsing and structural transfer	1986	5.902998767272423	6.482025602027315	2289356
2289509	PL	towards the design of a set-based java collections framework	2010	5.6833807441831246	7.100800349882424	2289536
2289899	PL	understanding design patterns — what is the problem?	2012	5.67575634336508	6.891300145792728	2289926
2290904	HPC	a metric for evaluating class library interfaces and its application to library upgrades	1995	4.665220378316823	6.131839525300507	2290931
2291221	DB	extending and formalizing the framework for information systems architecture	1992	5.322816045402012	6.0654347219206475	2291248
2291385	PL	functional logic design patterns	2002	5.199897201243818	7.1055129890875355	2291412
2291413	DB	automatic coding rule conformance checking using logic programs	2007	4.542317662318894	7.352001586990576	2291440
2291873	SE	web structures: a tool for representing and manipulating programs	1988	5.149782593291894	6.441424248306543	2291900
2292036	PL	procedure parameters can imitate sequence concatenation	1989	4.584684406365461	6.770440256223488	2292063
2292085	Robotics	a design method of communication protocols using sdl patterns	2003	6.102768948694482	5.8507435065084685	2292112
2292539	PL	the python compiler for cmu common lisp	1992	5.914995391205597	7.132576768207644	2292566
2293627	DB	declarative datalog debugging for mere mortals	2012	4.683324815777875	5.84207429864442	2293654
2293759	PL	programming by questionnaire: an effective way to use decision tables	1973	6.241775378001595	6.132293153343272	2293786
2293832	PL	implementing phrase-structure productions in pl/i	1967	4.522094028059193	5.815005913108226	2293859
2293902	PL	learning and using ans mumps a programmer's perspective	1980	6.1833615260634565	6.354426732086448	2293929
2293940	Vision	beyond the geneva convention on the treatment of object aliasing	2013	5.458498999288188	6.4420855950198765	2293967
2294185	Arch	programming for a machine with an extended address calculational mechanism	1959	4.815099934225878	6.425236140987875	2294212
2295473	PL	third generation compiler design	1975	5.940592514496621	6.15771636780316	2295500
2295864	HCI	a binary control structure and its relationship to grammars and side effects	1974	4.448935302187218	6.024836788890308	2295891
2295950	PL	compact coding of syntax tables	1984	4.774700230766282	6.685567474803507	2295977
2296099	Logic	efficient pattern matching in python	2017	4.738906762020788	6.490830192157517	2296126
2296201	Logic	deontic concepts in the algebraic specification of dynamic systems: the permission case	1995	5.137944332693329	5.881263655146319	2296228
2296221	PL	read-eval-print in parallel and asynchronous proof-checking	2012	4.964520256061925	6.93812732030574	2296248
2297173	EDA	experiences with gentle: efficient compiler construction based on logic programming	1991	4.863062942109664	6.57445223047445	2297200
2297457	Crypto	a formal verification of a subset of information-based access control based on extended weighted pushdown system	2014	4.8424823013500395	5.785039612749717	2297484
2298208	SE	an awk to c++ translator	1991	5.889121908346975	6.593317304909772	2298235
2298295	Theory	source language debugging on a small computer	1974	5.71784928956475	6.758230694125397	2298322
2298327	PL	supporting language interoperability by dynamically switched behaviors	2011	6.147957329728483	7.270849260503388	2298354
2298754	PL	an openmath 1.0 implementation	1997	5.9115235832833655	6.530929497216361	2298781
2299070	Logic	the control layer in open mechanized reasoning systems: annotations and tactics	2001	5.169593096704022	6.877067287861153	2299097
2299101	PL	a technical tour of ada	1992	5.393891682895262	6.826778117109963	2299128
2299612	PL	inline routines in vaxeln pascal	1984	5.025530300418351	6.817873192357339	2299639
2300280	NLP	a shorthand preprocessor for idms cobol	1984	6.295016127809715	6.56585647067301	2300307
2300404	SE	non-concept software subsystems: tangible and intangible	2016	4.959974033067242	6.772548717282463	2300431
2300618	PL	software portability via an intermediate language	1974	4.8842344893299625	6.948050662422706	2300645
2300896	PL	visual programming in nut	1997	5.598465080700087	6.1288815852790215	2300923
2301162	EDA	specification and verification of vhdl-based system-level hardware designs	1993	5.813348325649206	5.646373297092786	2301189
2301603	PL	adapt and ada 9x	1992	6.12800609987129	6.66556411653024	2301630
2301665	Logic	the concept of asynchronization	1980	4.889057038867012	5.6543531122325525	2301692
2301790	PL	hygienic macro expansion	1986	4.727062899646297	6.8924097814105725	2301817
2301973	AI	alas: agent-oriented domain-specific language for the development of intelligent distributed non-axiomatic reasoning agents	2018	6.157109911589941	6.75855921829824	2302000
2303020	PL	the new developments in c	1983	5.715967318437727	6.686268399930428	2303047
2303214	PL	a fortran to pascal translator	1981	5.395778232864399	6.482821841054452	2303241
2305352	EDA	features of high-level languages for microprocessors	1987	6.077116238284026	6.8340281346773315	2305379
2305463	PL	an abstract interpretation for estimating uncaught exceptions in standard ml programs	1998	4.433243580100363	7.412812109669745	2305490
2305585	PL	javalog: a framework-based integration of java and prolog for agent-oriented programming	2005	5.594958055104517	6.714931851811787	2305612
2305724	Logic	verification of parameterized and timed systems : undecidability results and efficient methods	2006	5.5694124050203495	6.722960411272661	2305751
2305820	PL	the kansas university rewrite engine - a haskell-embedded strategic programming language with custom closed universes	2014	5.5793289032070685	6.958535805404952	2305847
2305990	PL	engineering a production code generator	1982	5.6393950991593655	6.94885001358746	2306017
2306077	EDA	layered uml workload and systemc platform models.	2006	6.072382692908013	5.756633988936594	2306104
2306163	PL	yacc in sasl-an exercise in functional programming	1985	5.434935398476066	7.200822534181084	2306190
2306256	Robotics	grafcet for intelligent supervisory control applications	1994	6.2936532844257735	5.534935494616443	2306283
2307201	PL	psail: a portable sail to c compiler - description and tutorial	1988	5.5554263036126255	6.726436088003696	2307228
2307411	Robotics	möbius trace analysis with traviando	2008	6.1573246625788345	6.186057359694699	2307438
2307492	AI	what structure does a lisp program have - besides being a set of procedures?	1978	5.865147385968491	6.2545879129225055	2307519
2308290	HPC	a comparison between pascal, fortran and pl/1.	1981	5.586529332943623	5.721002549738718	2308317
2308300	PL	babel and soap, applications for extensible compilers	1973	5.657716466156866	6.780773572307852	2308327
2308440	AI	trying to understand peg	2016	4.485857656838552	6.406463116413541	2308467
2309785	Logic	a formal framework in vdm for the specification of parallel discrete event simulation	1995	5.8472828906307805	5.8593999568943245	2309812
2309863	Arch	implications of a metric for performance portability	2019	4.945074662882723	6.565349584249652	2309890
2310372	PL	integrating code generation and peephole optimization	1988	5.369426206161768	7.445794451385689	2310399
2310403	PL	assembler to c migration using the fermat transformation system	1999	6.102944326197531	6.849817020150188	2310430
2310503	PL	program analysis games	1999	5.456842855296924	7.290841591099154	2310530
2310622	SE	a run-time adaptive and code-size efficient xml parser	2006	5.627675200083809	6.9254476569867975	2310649
2310733	PL	on the equivalence and transformation of program schemes	1958	4.661685168316995	6.475303523656982	2310760
2311242	PL	extensible and modular generics for the masses	2006	4.58136609543117	7.310333654927588	2311269
2311701	DB	expressing business rules	2000	6.038379354380512	6.7698641379165005	2311728
2312845	AI	behavior trees in robotics and ai: an introduction	2017	6.197034529629207	7.122272314368717	2312872
2312929	AI	remax - a maxsat aided product (re-)configurator	2014	5.395531430778118	5.776015571665732	2312956
2313018	SE	using roles in java	2004	6.130413309294169	7.288818696184161	2313045
2313733	PL	c traps and pitfalls	1988	4.708313566998459	6.366104784225786	2313760
2314262	Arch	psl: a portable lisp system	1982	5.360489100726312	7.035215949844804	2314289
2314431	Web+IR	solving linear and one-way constraints for web document layout	2005	4.919271665829552	5.765632383240244	2314458
2315200	Networks	network debugging protocol	1974	6.236505513491429	6.149716601799923	2315227
2315958	Theory	chapter 3: version 1.2 of mpi	1998	5.988449542577416	6.096426466504925	2315985
2316107	EDA	a code optimization package for reduce	1989	5.959938603046268	5.9244385713186585	2316134
2317258	Graphics	game level layout generation using evolved cellular automata	2016	6.00859037311683	5.9919330711822925	2317285
2317307	SE	control structure aptness: a cast study using top-down parsing	1978	4.733006843463796	6.296971156396303	2317334
2317429	PL	a modular architecture for constraint-based parsing	1994	5.233484452459874	7.076919178308277	2317456
2318036	EDA	parallel hardware compilation in complex hardware/software systems based on high-level code transformations	1999	5.7941207760820355	5.734171131527143	2318063
2318042	SE	on statistical model checking with plasma	2014	5.718179883143288	5.875909108462116	2318069
2318140	PL	"""a response to """"some concerns about modula-2"""""""	1985	5.005260851226189	6.6740075737612825	2318167
2318577	Arch	verification of infinite-state graph transformation systems via abstraction	2015	4.750171506014917	6.07221937217308	2318604
2318639	Theory	newton: an interactive environment for exploring mathematics	1998	5.620124014425215	5.587613633724909	2318666
2318701	AI	af-apl - bridging principles and practice in agent oriented languages	2004	6.217267824459392	6.80100270612521	2318728
2318993	PL	on program verification and easy to veryfy programming	1973	5.647224582462991	6.637694917417935	2319020
2319108	Logic	a calculational approach to reactive systems	2000	4.650287085730039	5.537269842917311	2319135
2319118	PL	automatic inference of optimizer flow functions from semantic meanings	2007	5.136431178090783	6.757650831698924	2319145
2319537	EDA	macros: a neglected technique in assembly language programming	1989	5.8671514253324935	6.775133552307883	2319564
2321142	HPC	a language for set-theoretic concepts implemented by microprogrammed associative memory instructions	1982	4.924870218840768	6.608890407910317	2321169
2321403	PL	evaluating the design of the r language: objects and functions for data analysis	2012	6.167036422149515	6.868920254479817	2321430
2321969	Logic	a.i. system for automatic synthesis of trading technologies and portfolios for investment funds	2008	5.061215334798893	6.439152254143899	2321996
2322039	AI	a coprocessor for ai: lisp, prolog and databases	1987	5.273343608716833	5.853545434928322	2322066
2322109	PL	applications of the tampr transformation system	1998	4.823836517519387	6.857714488691453	2322136
2322469	SE	on the efficient engineering of ambitious program analysis	1994	6.0295401724764774	6.687298745606878	2322496
2322720	PL	extending object-oriented systems with roles	1996	5.787862143665556	7.259041672538884	2322747
2323200	PL	a grammar rule notation translator	1987	5.390923275089269	5.735937863883129	2323227
2323475	Arch	sprint: a direct approach to list processing languages	1967	5.680605187594475	6.383625379945404	2323502
2323797	SE	locating features in source code	2003	5.51069077608228	6.970062047418934	2323824
2323855	Theory	introductory tutorial on foundations and applications of graph transformation	2006	5.353865928146464	6.862446970743912	2323882
2324227	AI	genb: a general solver for agm revision	2016	4.75324494555962	5.953723858535764	2324254
2325196	PL	understanding access restriction of variant parametric types and java wildcards	2005	4.560652479533559	7.094019757779889	2325223
2326025	SE	a static analysis of pascal program structures	1982	5.3158238615570585	7.0321737244276825	2326052
2326107	Logic	a synthesis of two approaches for verifying finite state concurrent systems	1989	4.668794383537668	6.204002366096858	2326134
2326653	DB	casdal: cassm'a data language	1978	5.1740013864997305	6.613634733412992	2326680
2326876	PL	denotational semantics of a calculator	1993	5.390483877300234	7.405437180289723	2326903
2326892	PL	representations of recursion	1995	4.461339389935304	5.981814515917928	2326919
2326978	SE	probabilistic dispatch, dynamic domain architecture, and self-adaptive software	2001	5.904624265995568	5.730585221615876	2327005
2327044	SE	a new look at test generation and verification	1977	5.662025054522773	6.568639181797618	2327071
2327205	Embedded	proving model equivalence in model based design	2014	6.1788456159627225	6.794245014395049	2327232
2327772	OS	keykos architecture	1985	5.62579631934281	5.611714998651376	2327799
2327947	AI	observations on the interaction between coding and efficiency knowledge in the psi program synthesis system	1976	5.861078127467061	5.845980072131442	2327974
2328177	Robotics	programming environments for cellular automata	1996	4.602341412415648	6.101543485597942	2328204
2328214	PL	subset/g pl/i and the pl/i standard	1983	5.677308277194978	6.531486048013939	2328241
2328838	ML	the learnability of business rules	2016	6.2529957311457895	7.259973364876807	2328865
2328866	SE	traits: tools and methodology	2004	5.851742352107947	7.039206855796108	2328893
2330342	SE	graphical support for prototyping of algebraic specifications	1994	6.095712475231996	7.327757962302729	2330369
2330749	Arch	introducing cdl	1974	6.1308809063885805	5.916653072161531	2330776
2330813	Crypto	mac os x for java geeks - cross-plattform compatibility and platform-specific functionality: covers mac os x jdk 1.4	2003	6.289322445848057	5.867461444278813	2330840
2330881	HPC	the pipes and filters pattern. a functional parallelism architectural pattern for parallel programming	2005	5.722271835889825	6.901248603578045	2330908
2330915	SE	static analysis of javascript libraries in a scalable and precise way using loop sensitivity	2018	5.853819312763008	6.120927734496081	2330942
2331144	PL	interpreter prototypes from formal language definitions	1993	6.057190027846088	7.340035430770202	2331171
2331154	NLP	efficient parsing of visual languages based on critical pair analysis and contextual layered graph transformation	2000	4.655806967648337	6.249958772051638	2331181
2331764	EDA	design and applications of an algorithm benchmark system in a computational problem solving environment	2006	6.126480967095407	5.924520980874593	2331791
2332412	Embedded	using a decision-table structure as the input language format for programming automatic test equipment systems	1965	5.988841543579032	6.409537107156218	2332439
2333259	PL	on designing a language for exclusive use in a syntax directed programming environment	1988	5.511399097789693	6.695615044966678	2333286
2333585	SE	towards a wide spectrum language to support program specification and program development	1978	4.541109832746783	7.215993877095246	2333612
2334306	PL	design and implementation of a language-complete c++ semantic graph	2012	6.1820055045072255	6.91896990897442	2334333
2334494	PL	programmable syntax macros	1993	4.9741292329398	7.304992885254067	2334521
2334591	Crypto	avl trees	2004	5.020262822942285	5.705718073851808	2334618
2334737	Visualization	software reviews	1987	6.0508576056890355	5.972605191439032	2334764
2334742	PL	supporting control definition in programming languages	1984	5.615024312028817	6.754839936393537	2334769
2335720	PL	programming languages	2014	5.699107659080339	7.393352319604259	2335747
2336930	NLP	formal modelling and analysis of predictable java	2010	5.921586396548245	5.688553165120036	2336957
2336982	Theory	lazy variable-renumbering makes substitution cheap	1988	4.533176988235711	6.550622389368559	2337009
2337741	Logic	modularization and hierarchy in a family of operating systems	1976	5.7047108181575545	6.135008317178968	2337768
2338233	Arch	kyoto common lisp: a high level language implementation of common lisp on general purpose machines	1987	5.616629775564814	5.935996448758353	2338260
2338772	DB	complex constraint abstraction: global constraint visualisation	2000	6.118848258572659	6.9956596716790544	2338799
2338990	PL	towards a programming language for interaction nets	2005	4.798096866063234	6.9481225438346925	2339017
2339059	Arch	low-level issues in implementing a high-performance continuation passing binary prolog engine	1994	5.124558402196046	5.794957007116524	2339086
2339283	DB	a functional processor for the relational algebra on a microcomputer	1986	5.2723845407565895	6.548291034168968	2339310
2339678	AI	a high-level implementation of a system for automated reasoning with default rules (system description)	2008	6.001261419756067	6.948792895580986	2339705
2340282	Logic	a simple translation automaton allowing the generation of optimized code	1975	4.834390877985327	6.8897274544522205	2340309
2341850	Logic	slicing concurrent interprocedural programs based on program reachability graphs.	2012	4.847999651765082	6.189131029145523	2341877
2342720	PL	extending a partial evaluator which supports separate compilation	2000	4.465380400362052	6.804465549384378	2342747
2343328	PL	class hierarchy specialization	1997	5.885741096624322	6.7273230432807205	2343355
2343436	PL	description of basic algorithm detab/65 preprocessor	1967	5.2275575538243695	6.669367201604573	2343463
2343647	Arch	guest editors' introduction firmware engineering: the interaction of microprogramming and software technology	1986	6.026511599241397	5.839105408161982	2343674
2343834	DB	object identity	1986	4.650285564787485	6.4591322393373245	2343861
2343862	Embedded	automatic regeneration of sequence programs for operating plants	1997	5.227160848908997	5.661042795897695	2343889
2344738	Web+IR	probabilistic logic programming on the web	2016	5.908300551742959	6.0765848743234825	2344765
2345781	Theory	a software tool for top-down programming	1983	5.8026790703304965	6.212201256855067	2345808
2346315	OS	programming decision tables in fortran, cobol or algol	1966	5.014748881630509	6.298026190672353	2346342
2346373	SE	soft - generating highly flexible object code from xml specifications	2003	6.068467572721082	7.0891510606611075	2346400
2346736	PL	list processing: sort again, naturally	2005	5.048942995160743	7.088740502344148	2346763
2347844	SE	the unix system and software reusability	1984	6.0348381472703325	6.9922962404062305	2347871
2348000	NLP	evaluation of semantic actions in predictive non- recursive parsing	2008	4.611196599262189	6.582757901302687	2348027
2348535	PL	the epn and esn notations	1984	5.71386929998806	7.1520222141093885	2348562
2348882	SE	a theory of interfaces and modules i-composition theorem	1994	5.984216781382076	7.168159273006785	2348909
2348959	Logic	annotating spiders with resource information	2014	5.506828654162546	6.605326901109942	2348986
2349259	PL	on the role of error productions in syntactic error correction	1980	5.164438025571224	6.493176400929027	2349286
2350612	Logic	toward an algebraic framework for security policy enforcement in concurrent systems	2010	5.343927402616357	6.35696848900333	2350639
2350694	HCI	unifying theories of locations	2008	4.4091943464685395	7.0642288742298165	2350721
2351033	PL	modular specifications of xml processing tasks with attribute grammars defined on multiple syntactic views	2010	5.839342325373662	6.470546189107944	2351060
2351188	Logic	constraint solving and programming: what's next?	1996	5.244683830656302	6.6895033453720245	2351215
2351305	Robotics	programming language design in cybernetics applications	2006	6.14324981213722	6.13444504352048	2351332
2351566	Theory	a hybrid algebraic-numeric system ans and its preliminary implementation	1987	5.9288499912809876	6.439779152982428	2351593
2352651	SE	a study of irreducibility in c programs	2012	5.907368574776021	6.459087413054001	2352678
2352956	Logic	abstraction and acceleration in smt-based model-checking for array programs	2013	5.079168983415952	5.930466854816066	2352983
2353392	Embedded	making pvs do what you want	2005	4.683912863959248	6.030636592293067	2353419
2355633	Logic	on the cloud-enabled refinement checking of railway signalling interlockings	2013	6.171248867327553	6.712102483450911	2355660
2355772	AI	a tool for knowledge base integration and querying	2006	4.4024577454476645	5.770167270350614	2355799
2356072	PL	giving mathematical semantics of nondeterministic and parallel programming structures by means of attribute grammars	1986	4.428020148988973	6.4349235300405665	2356099
2356083	Logic	recent advances in the formal verification of cryptographic systems: turing's legacy	2012	5.682731275731277	5.800445852843032	2356110
2356170	EDA	basic interaction mechanisms of active objects in digital systems and possible methods of their technical realization	2015	5.681374827035892	5.911213966657487	2356197
2356811	PL	monadic parsing in haskell	1998	5.058571860063008	6.470755349526202	2356838
2357044	Logic	formal verification of concurrent programs in type theory	1999	4.723471286535554	6.842982178723898	2357071
2357065	PL	towards situation-oriented programming languages	1995	5.4885387699141015	5.799274632836695	2357092
2357480	DB	a production rule mechanism for generating lisp code	1979	4.5550640305898495	6.5223512023302135	2357507
2357668	PL	modula-2 process facilities	1984	5.402877463553582	6.530126042860989	2357695
2359353	SE	the feasibility of domain specific software reuse for electronic warfare systems	1993	6.303870153490207	7.276725035135376	2359380
2359517	Logic	an expressive logic for a process algebra with silent actions	1987	4.454381311677415	5.939515775359973	2359544
2359798	Graphics	writing reusable digital geometry algorithms in a generic image processing framework	2010	5.836408464404327	6.206229155197233	2359825
2361797	PL	analysis of the effects of programming factors on programming effort	1980	5.910054212124299	6.158578304673644	2361824
2362228	SE	machine structure oriented control code logic	2009	5.753426685303137	7.104644438879143	2362255
2362243	DB	a report writer for cobol	1962	5.440893314738814	6.2387396853905	2362270
2362553	SE	an approach for model querying-by-example applied to multi-paradigm models	2011	5.585012050123087	7.259814591053026	2362580
2362955	PL	a type system for implicit scaling	1991	4.532969722361964	7.363195271483795	2362982
2363192	DB	on multiplicities in tuple-based coordination languages: the bach family of languages and its expressiveness study	2018	4.7083006569942745	6.738930647487951	2363219
2363299	DB	using logic programming for formal specification and validation of data models	1990	4.52722614129787	6.750048356120133	2363326
2363930	PL	a proposal to merge multiple tuple spaces, object orientation, and logic programming	1996	5.7503417467940166	6.556865734053769	2363957
2364884	PL	implementing an object oriented design in curry	2000	6.186044203480338	7.423970761513113	2364911
2364892	Theory	introduction to compugraph	1995	6.1363876042075525	7.209014889530232	2364919
2364928	Logic	a language-independent approach to smart contract verification.	2018	5.41573176529958	5.736762495557902	2364955
2365095	PL	on implementing separate compilation in block-structured languages	1979	5.008032804585037	7.175000411959642	2365122
2365821	PL	a proposal for a modular lisp with macros and dynamic evaluation	1991	5.640781508673352	5.689011457823937	2365848
2367159	Theory	manipulation of data structures without pointers	1987	5.165410707586553	6.5296500555085935	2367186
2367648	NLP	pavt: a tool to visualize and teach parsing algorithms	2018	5.760131018507921	6.276024513193803	2367675
2368345	PL	vhdl 1076-1992 languages changes	1992	4.491907835789994	6.887601246736606	2368372
2368401	PL	multi-polymorphic programming in bondi	2013	5.130213313547654	6.705542817294093	2368428
2368408	PL	comparison of context-free grammars based on parsing generated test data	2011	5.941365444400907	6.7288789901370905	2368435
2368986	NLP	openmath and smt-lib	2018	4.516693661062959	5.952341182573589	2369013
2369002	PL	type class directives	2005	5.278693856347309	7.401053278738662	2369029
2369191	NLP	a framework for the dynamic implementation of finite automata for performance enhancement	2004	4.693909416704399	6.179388950524441	2369218
2369215	PL	remote attribute updating for language-based editors	1986	4.714493348255046	6.9224159514219705	2369242
2369456	PL	programming language assessments using the program profiles	1985	4.717470779430808	6.5332959985779295	2369483
2371162	AI	firstcs—new aspects on combining constraint programming with object-orientation in java	2011	4.476954299883942	6.5897256956869805	2371189
2371366	PL	numerical methods with fortran 77: a practical introduction : by l. v. atkinson, p. j. harley and j. d. hudson, addison-wesley, wokingham, u.k., 1989. isbn 0-201-17430-8, 386 pp. + index and contents	1990	5.364760131134582	5.738954582199303	2371393
2371643	AI	spatial aggregation: theory and applications	1996	5.112699028720494	5.7370973572093895	2371670
2371959	DB	c# 3.0 makes ocl redundant!	2007	6.0340978473754125	6.865925911153614	2371986
2372240	PL	smart recompilation: what is it?, its benefits for the user, and its implementation in the dec ada compilation system	1993	5.8558650340064915	6.8441097560734745	2372267
2372691	PL	incremental analysis of real programming languages	1997	4.387979758734361	6.711743015551647	2372718
2372763	Arch	test derivation from non-deterministic finite state machines	1992	4.7031055601077565	6.175426231627876	2372790
2373029	Logic	using the state delta verification system (sdvs) for hardware verification	1992	5.266001864807019	6.054212218181922	2373056
2373424	PL	annotations for portable intermediate languages	2001	5.909262752852084	7.140105438441068	2373451
2374845	PL	io: a new programming notation	1989	5.099625012693141	6.591841172652026	2374872
2375437	PL	reuseware - adding modularity to your language of choice	2007	5.842177324014711	6.879873173220652	2375464
2375524	AI	thinking in parallel: four steps to parlog	1992	4.876080189305728	6.507941660005993	2375551
2375963	NLP	improvements to systematic program development	1992	5.079333780701831	6.659984084521742	2375990
2376222	PL	retargetable cross compilation techniques: comparison and analysis of gcc and zephyr	2002	6.08017174686443	6.526410341949808	2376249
2376306	DB	design and implementation of web crawler based on coroutine model	2018	5.605064786047575	5.951534935966765	2376333
2377064	SE	augmented bnf for syntax specifications: abnf	2005	6.0520051140459366	5.709018710607704	2377091
2377230	HPC	on the effect of different counting rules for control flow operators on software science metrics in fortran	1982	5.7045763594731005	6.484239161984137	2377257
2377310	PL	a functional programming system sfp: sisal 3.1 language structures decomposition	2007	4.820913699105279	7.1993576535065875	2377337
2377603	PL	recursive structures for standard ml	2001	5.151970766506017	7.429240112238483	2377630
2379131	Logic	a user's guide to zot	2009	5.4789575171566245	7.2568317982300625	2379158
2381604	AI	a meta-programming technique for debugging answer-set programs	2008	4.544652618902584	6.087260648276024	2381631
2383026	PL	bubble reflections	1987	4.4025872849821015	6.634993021081621	2383053
2383035	Robotics	a formal model of computation for sensory-based robotics	1989	5.833717943350303	6.9892936487102375	2383062
2383711	PL	integrating object-oriented paradigms and logic programming: the opla language	1994	6.231351931072735	6.76984201720153	2383738
2384205	PL	a note: top-to-bottom parsing rehabilitated?	1967	4.578085498464595	6.5508002137627015	2384232
2384330	PL	building interpreters by composing monads	1994	4.7119181562245975	7.332511182753892	2384357
2384583	DB	a better semantics for xquery with side-effects	2007	4.7128935827834155	6.745230074142871	2384610
2386199	PL	object-based computing and the ada programming language	1985	4.889425831786237	6.8235561585806215	2386226
2386224	SE	formal specification tools for test coverage analysis	1994	4.413751491269532	7.256998036377921	2386251
2386587	PL	functional programming with the fc++ library	2004	5.080969177730282	7.109880633769215	2386614
2386749	Comp.	yammp: development of a molecular mechanics program using the modular programming method	1993	6.307143099801373	6.306589058448856	2386776
2386805	AI	verifikation regelbasierter konfigurationssysteme	2003	5.6481988006147485	6.416931699515262	2386832
2387185	Logic	programmer-defined control abstractions in modula-2: 141	1990	5.482137208425027	7.3624506523805495	2387212
2387319	PL	design and implementation of a prolog-to-c compiler	1994	6.005112191339643	6.8871596941028805	2387346
2388215	Theory	gier-a danish computer of medium size	1963	5.873057288919684	5.868375597864704	2388242
2388905	PL	design of a separable transition-diagram compiler	1963	5.479129972870369	6.41524771625677	2388932
2389387	DB	message passing between individual and socially acquainted objects in smalltalk	2002	5.912105428351929	6.980477303930626	2389414
2390001	PL	введение в java-технологию	2008	5.870676840653174	6.6857030703088896	2390028
2390179	Arch	a new control structure for transformation-based generators	2000	4.936193730619748	6.404946857632912	2390206
2390364	PL	model transformation with immutable data	2016	6.148250353464642	7.173402592769058	2390391
2391274	PL	a language of patterns for subterm selection	2012	4.771348272090061	7.3259849925862515	2391301
2391348	PL	encapsulation, delegation and inheritance in object-oriented languages	1992	6.231367396768144	7.369352195359559	2391375
2391901	SE	fundamental approaches to software engineering, 11th international conference, fase 2008, held as part of the joint european conferences on theory and practice of software, etaps 2008, budapest, hungary, march 29-april 6, 2008. proceedings	2008	5.859861116701209	6.8363615550845065	2391928
2392261	PL	threading lisp	1990	5.436468212963559	7.048442556307888	2392288
2392495	SE	effect of declarations on software metrics: an experiment in software science	1982	5.940615392891935	6.806940046576264	2392522
2392919	AI	program analysis and machine learning: a win-win deal	2011	6.132101423533081	6.337418482811773	2392946
2393099	Logic	programs to process trees, representing program structures and data structures	1984	5.899253579674635	6.379409288361868	2393126
2393316	PL	a graphical debugger for o-o distributed programs	1991	5.946794382887409	6.213744017985267	2393343
2393966	PL	explicit metaclasses as a tool for improving the design of class libraries	1996	5.505000197633281	7.300636244730706	2393993
2395179	EDA	applying an smt solver to coverage-driven design verification	2018	5.169952000798542	5.596217870345478	2395206
2396284	PL	an efficient implementation of visibility in ada	1984	5.689554683404162	7.056645834464959	2396311
2396479	AI	a methodology for systematic verification of ops5-based ai applications	1991	4.804650679080084	6.407364261167389	2396506
2397424	PL	logical loops	2002	5.491787886754417	7.074141198953702	2397451
2398111	PL	crocopat 2.1 introduction and reference manual	2004	5.927527096795162	5.8486203593589146	2398138
2398161	NLP	design of a graphics interface for computer-based biomedical applications	1988	5.659523437526452	6.05893554705604	2398188
2398470	PL	analyzing mathematical programs using mprobe	2001	6.004543540614087	5.8484865210385575	2398497
2398821	PL	parsing using combinators	1989	5.101059282264608	6.467943883504367	2398848
2399113	SE	towards the mathematics software bus	1997	6.110932988679337	6.23055906853045	2399140
2399239	PL	a declarative extension of parsing expression grammars for recognizing most programming languages	2016	5.041840248915887	7.125408220520298	2399266
2399331	EDA	a geometrical product specification language based on a classification of symmetry groups	1999	5.208630731199696	6.216394998211192	2399358
2399464	NLP	a practical method for syntactic error diagnosis and recovery	1982	4.6621084288511785	6.570267387656744	2399491
2399515	SE	the research workshop on computer-aided programming in the academic year of 1998/99	2000	5.972554364642705	7.404338733851186	2399542
2399823	SE	execution semantics to integrate control flow and data flow.	2001	5.803681855119567	5.809036779317959	2399850
2399858	PL	on a java computer algebra system, its performance and applications	2008	4.557977662415955	7.2669748929125655	2399885
2399906	PL	tools and behavioral abstraction: a direction for software engineering	2010	4.883241033477007	6.738983529412888	2399933
2400189	Logic	formal semantics of orc based on tla+	2014	5.3262739658321125	5.893511489903507	2400216
2401356	AI	packet decoding using context sensitive parsing	2006	5.592656719849213	6.790783958872697	2401383
2401381	NLP	a functional language for mobile agents with dynamic extension	2004	6.276693430673944	6.327300154158419	2401408
2402200	AI	pictures depicting pictures: on the specification of visual languages by visual grammars	1992	5.223419328665305	6.130208544226595	2402227
2402691	PL	a simple recovery-only procedure for simple precedence parsers	1978	4.5688229966422735	6.171524623414738	2402718
2402821	PL	procedural representation of cic proof terms	2009	5.533884367467654	6.898426691751088	2402848
2403289	PL	translating troll light concepts to maude	1992	4.7173787638914	7.433380025409306	2403316
2403474	Logic	a practical algorithm for exact array dependence analysis	1992	4.994363757525006	7.237003174763094	2403501
2404190	PL	a technique for finding storage allocation errors in c-language programs	1982	5.765985283115366	6.410945248967817	2404217
2404863	SE	tradeoffs in retrofitting security: an experience report	2007	5.536824106337535	7.035441349860928	2404890
2405147	PL	object-sensitive type analysis of php	2015	5.009521834741559	6.411152760668045	2405174
2405717	PL	principled parsing for indentation-sensitive languages: revisiting landin's offside rule	2013	4.917211664816771	7.1546158968283375	2405744
2406288	DB	formalisation and implementation of access control models	2005	4.888208437479328	7.321341845205815	2406315
2406458	Logic	a uml based notation for specifying abstract board games	1998	5.831739468622295	7.4337244296220435	2406485
2407105	PL	the use of symbol-state tables	1970	4.947676924837237	6.869730451423331	2407132
2407134	SE	a method for generating program specification from source program: analysis by transforming program structure and argument manipulation	1995	5.358414367515352	6.581854582185024	2407161
2407486	NLP	scalable framework for parsing: from fortress to javascript	2016	5.537014015442077	7.325634527343928	2407513
2407560	PL	pasion tutorial	1991	6.283161408708434	5.856254690194287	2407587
2407565	PL	letters to the editor: an interpretive input routine for linear programming	1967	6.245802895111297	5.942815831530532	2407592
2407855	Logic	towards constructive program derivation in vdm	1990	6.227232819321006	7.339377620393409	2407882
2408193	PL	expression templates in ada	2001	5.296472825297734	7.368421169017748	2408220
2409157	PL	tailoring unity to distributed program design	1998	5.234494802682418	7.330126642612648	2409184
2409625	Theory	se-systems, timing mechanisms, and time-varying codes	2002	4.99076226286503	5.793942390398652	2409652
2410119	Theory	adapting optimal code generation for arithmetic expressions to the instruction sets available on present-day computers	1973	5.547830698682324	6.108733453356756	2410146
2410122	AI	bounded seas	2015	5.786665531909415	7.195777684307088	2410149
2410944	PL	logos: an object-oriented scheme to implement logic programming languages	1994	4.4419425360687645	6.64582829616216	2410971
2411040	PL	euclid: a language for compiling quality software	1981	6.01678185615696	7.010345365802754	2411067
2411176	Arch	modular computer systems	1973	6.278045182026893	5.663786682793784	2411203
2411912	SE	hierarchical program representation for program element matching	2007	5.92833533226525	6.4929972009461245	2411939
2411945	DB	specifying semantics of evolution in object-oriented databases using partial deduction	1992	5.11718948965019	5.5344637228690265	2411972
2411963	PL	visitor combination and traversal control	2001	5.769151933288906	7.249060827389117	2411990
2412239	Robotics	distributed and object oriented symbolic programming in april	1995	5.928536060492273	5.981536862235112	2412266
2412254	Graphics	shape modeling using cellular structured spaces	2002	5.340433085949317	5.897284094559872	2412281
2412333	AI	byte the bullet: learning on real-world computing architectures	2014	6.167298658184817	5.780148163229076	2412360
2412346	Graphics	macsyma - the fifth year	1974	5.611222017962773	6.122209382205488	2412373
2412412	Robotics	smalltalk as a programming language for robotics	1987	6.2606776243337325	6.1085598491709145	2412439
2413333	Vision	unified training of wfsa through a generic interface	2006	5.7072155539187275	6.092771693582712	2413360
2413385	Logic	building efficient incremental ll parsers by augmenting ll tables and threading parse trees	1996	5.044025609492082	6.534703279557687	2413412
2413722	PL	guidelines for writing pl/i programs	1982	6.048492845484338	6.0491479820720375	2413749
2414013	PL	automated computation and consistency checking of physical dimensions and units in scientific programs	2001	6.04414968012428	6.8323823363190925	2414040
2414030	AI	a framework of a logic-based transformation system	1992	5.642568923210323	5.7885080348703095	2414057
2414506	PL	integrating formal models into the programming languages course	2002	5.7681844698695315	6.839867550219996	2414533
2414624	PL	implementation and application of a function data type	1977	4.455174416632193	6.376320984693084	2414651
2414873	AI	visual conditional attributed rewriting systems in visual language specification	1996	6.112776958549782	5.7224936384371645	2414900
2415777	SE	textbook errors in binary searching	1988	5.643410702916786	6.425909160688102	2415804
2416062	PL	an object-oriented toolbox for spectral element analysis	1999	6.270863943979927	6.335988868488383	2416089
2416266	NLP	an intuitive procedure for converting pda to cfg, by construction of single state pda	2014	4.690165209442477	6.076005717803018	2416293
2416351	PL	adaptable software and hardware: problems and solutions	1986	5.905763236564367	7.1984658058062765	2416378
2416802	PL	gets - a specification language for geo-temporal notions	2006	4.699506895434321	5.596456121973377	2416829
2417754	SE	basic requirements and main features of a system supporting the reusability of mathematical software on personal computers	1990	6.247280041537799	5.8406466219158375	2417781
2418153	PL	an attribute grammar for ada	1982	4.534597022640366	7.351842827231625	2418180
2418361	SE	beautiful imperative code - a functional ace in the hole for imperative programmers	2013	5.737123004397764	6.478471149975783	2418388
2419335	PL	global context recovery: a new strategy for syntactic error recovery by table-drive parsers	1980	4.690885095644958	6.460035430394783	2419362
2420223	PL	structured programming in macintosh assembly language (abstract)	1990	5.042897085360427	6.486565268953174	2420250
2420277	Theory	forest fire and fire wood: tools for tree automata and tree algorithms	2008	5.695860276579577	5.891949338209022	2420304
2420761	AI	bypassing greeklish!	2004	6.211818055586983	5.825054548873861	2420788
2420829	Web+IR	towards description set profiles for rdf using sparql as intermediate language	2014	6.081511462231813	6.52221083861663	2420856
2421252	ML	lightweight structured editing with direct manipulation	2017	4.811347230366827	6.607286819225204	2421279
2421843	EDA	cellular hardware and symbolic computation	1984	4.576853603596058	6.025562837509337	2421870
2422453	PL	linear, bounded, functional pretty-printing	2009	4.679939941337432	7.155575966349683	2422480
2423231	PL	analysis and transformation with the nuthatch tree-walking library	2015	5.64267671108603	7.032799535620328	2423258
2423682	SE	enumerated types in java	1999	5.211800157096722	6.9332652329644056	2423709
2423820	PL	eiffel-like assertions and private methods in smalltalk	1994	5.724684876605731	7.325197192263509	2423847
2425929	AI	a2: an agent-oriented programming architecture for multi-agent constraint satisfaction problems	1990	6.152463696111084	6.823048454348222	2425956
2426169	PL	sw 2 - an object-based programming environment	1985	5.526619395817069	6.6902864689191075	2426196
2426208	Logic	time and space issues in the generation of graph transition systems	2005	4.430445400483907	6.444553651855163	2426235
2426307	PL	implications of structured programming for machine architecture	1978	4.850376448214913	7.262010745183862	2426334
2427355	Logic	a unifying framework for correct program construction	1998	4.657241210110161	7.224312663463548	2427382
2427979	PL	"""comments on """"retargetable compiler code generation"""""""	1983	5.92667026354242	5.909675804766662	2428006
2428081	SE	some features of a real-time basic executive	1976	6.240153067425494	6.0582898487910795	2428108
2428489	Robotics	real-time music composition through p-timed petri nets	2014	5.469002764983901	6.482111036207759	2428516
2429229	PL	agapia v0.1: a programming language for interactive systems and its typing system	2008	4.875843146598528	6.8586983910380575	2429256
2430189	ML	opengm: a c++ library for discrete graphical models	2012	5.064091534894506	6.699076364309711	2430216
2430699	Logic	on formal specification of maple programs	2012	5.308542762451954	7.112383992367059	2430726
2431104	PL	reflecting java into scheme	1999	6.070081807077745	7.370350352337482	2431131
2431702	ML	the beauty and the beast: separating design from algorithm	2011	5.296764240797836	6.781196845334174	2431729
2431731	PL	compositional program synthesis from natural language and examples	2015	6.103879305421319	7.256461720535675	2431758
2432018	Embedded	embedding time granularity in logical specifications of real-time systems	1991	5.001595788117754	7.410610375627665	2432045
2432270	HPC	active libraries: rethinking the roles of compilers and libraries	1998	6.297838902494483	6.4165219332094825	2432297
2432703	PL	maths vs (meta)modelling - are we reinventing the wheel?	2008	5.130157112037412	6.429723901297808	2432730
2433064	PL	datatype-generic programming	2007	4.601936213977501	6.730422666388156	2433091
2433071	PL	sal: systems assembly languages	1969	6.193796168859753	6.11634987808096	2433098
2433263	Embedded	model composition for scheduling analysis in platform design	2002	5.786816770722759	5.961560558366911	2433290
2433544	PL	using c++ templates for implementation of patterns	2000	5.366125459897526	7.368102793827549	2433571
2434388	DB	formal specification of discrete systems by active predicates and dynamic constraints (short paper)	1999	5.044839275512531	5.845299075716484	2434415
2434677	Logic	on dimishing the vibrant confusion in software metrics	1997	5.687870769125838	6.007686755485399	2434704
2435517	OS	embedding declarative subprograms into imperative constructs	1993	5.447249584546786	5.864798235531151	2435544
2435811	Embedded	intertwining implementation with the realspec executable real-time specification language	2010	6.3071499576997425	5.917422425721677	2435838
2436225	PL	introducing clover: an object-oriented functional language	1996	5.974446432882194	7.277408200570981	2436252
2436310	PL	cybil: cyber implementation language	1985	5.873097069615982	6.2109025188343026	2436337
2436512	SE	debugging larch shared language specifications	1990	4.694149384629267	7.425346871290263	2436539
2437562	PL	a programmer friendly modular definition of the semantics of java	1999	5.805842537580067	7.357945631389063	2437589
2438942	PL	more about left recursion in peg	2018	4.585367739276396	5.723118069295621	2438969
2439626	PL	quip: a system for automatic program generation	1968	6.004993706095964	6.210763807761419	2439653
2439701	EDA	firmware verification and simulation in ibm zenterprise 196	2012	5.942440650212733	6.552925585668856	2439728
2439845	Arch	towards a modular specification and verification of protocols within a layered architecture	1993	5.9890112903416215	5.546526692210093	2439872
2440541	PL	modern compiler design	2000	4.767829531163519	6.518592078310951	2440568
2440981	PL	roles are really great	2001	5.5905499046906435	6.776446252899205	2441008
2441100	PL	on evolution of fortran	1984	5.980467537250855	6.032746867879455	2441127
2441423	AI	hex-programs with nested program calls	2011	5.614996136604687	5.910273375076938	2441450
2441700	SE	retrofitting the autobayes program synthesis system with concrete syntax	2003	5.675847059434839	7.2973713603830275	2441727
2441800	AI	what's the name of the game? formal specification of artificial intelligence games	2005	5.82983158803566	6.662634515794097	2441827
2442366	PL	word count as a traditional programming benchmark problem for genetic programming	2014	4.831034934327845	7.218523855225188	2442393
2442758	DB	"""how """"how"""" explains what """"what"""" computes - how-provenance for sql and query compilers"""	2018	4.8803695437037184	6.631770995793418	2442785
2444583	NLP	stochastic syntax-directed translation schemata for correction of errors in context-free languages	1975	4.6237384718191885	6.362597499811282	2444610
2444713	PL	formal methods for high-performance linear algebra libraries	2000	6.102613922916434	6.849013623435331	2444740
2444807	PL	a type system that reconsiles classes and extents	1991	4.5707038455680875	7.370650375516534	2444834
2444969	PL	phrase parsers from multi-axiom grammars	1998	4.550735402580179	6.307783931870043	2444996
2444974	HPC	fortran 8x tutorial	1985	5.909510681796952	6.480960345166029	2445001
2445992	HCI	the effects of using a nonprocedural computer language on programmer productivity	1985	5.5841257732322855	7.2971991123991415	2446019
2446131	PL	filtering import: a basic mechanism for reusability	1993	5.2717744288353705	7.421873405805104	2446158
2446542	Logic	qualitative analysis of regulatory graphs: a computational tool based on a discrete formal framework	2003	5.155062875908861	5.862685307196485	2446569
2447017	DB	embedding xml processing toolkit on general purpose programming language	2002	5.601595262265892	6.506717388780963	2447044
2447363	PL	recovering grammar relationships for the java language specification	2010	5.367324933313345	7.282080698531263	2447390
2449014	SE	contention free embedding of complete binary trees into 3d meshes in half and full-duplexed network models	1999	5.527677260855705	7.008100910176968	2449041
2449847	PL	sweeten your javascript: hygienic macros for es5	2014	5.073260103099428	7.3523624277697905	2449874
2450133	PL	effective binary perspectives in algorithmic problem solving	2002	4.479100406480357	5.955288933806988	2450160
2450160	Logic	on the enhancement of portability within the nag project - statistical survey	1976	5.9233027196275785	5.662870661263704	2450187
2450256	SE	preprocessor conditional removal by simple partial evaluation	2001	5.735211135378632	6.869856282511023	2450283
2450451	AI	jazzyk: a programming language for hybrid agents with heterogeneous knowledge representations	2008	6.138168188656104	7.044023766578131	2450478
2450832	PL	custom specializers in object-oriented lisp	2008	6.247518660137977	6.790081793614129	2450859
2451023	PL	a unified numeric data type in pascal	1975	4.661475967660572	7.266852791766371	2451050
2451105	Logic	syntactical charts of cobol 61	1962	4.555662773936064	6.276186481520952	2451132
2451617	AI	modules in logic programming: a framework for knowledge management	1993	5.731243566637597	6.095788286003374	2451644
2452688	PL	a clp-based tool for computer aided generation and solving of maths exercises	2003	5.219045220320603	6.55636333657533	2452715
2453489	PL	generating generic functions	2006	4.4331833243299	7.3357925012801575	2453516
2454397	Logic	abstraction, concurrency, and communal computing in sequencel	1997	4.987837579969908	6.6476433154090975	2454424
2454532	AI	a natural language architecture	2007	6.0636894442884275	6.211911033738486	2454559
2454587	Logic	machine synthesis of mathematical theorems	1990	5.068689210747151	5.564131276977722	2454614
2454964	Logic	animating formal proof at the surface: the jape proof calculator	1999	4.500307198206068	6.473678449349389	2454991
2455366	PL	beyond pretty-printing: galley concepts in document formatting combinators	1999	4.479933777737334	6.6962656125372675	2455393
2455834	SE	unloading java classes that contain static fields	1998	5.608126383363855	7.216468184373107	2455861
2456705	PL	letters to the editor: on the implementation of slip	1965	4.5169486453813255	6.369195215331137	2456732
2457790	Metrics	the use of dots as brackets in church's system	1942	4.916964290401864	5.9025282619300405	2457817
2457816	PL	a practical study of control in objected-oriented-functional-logic programming with paisley	2017	4.405136220064569	7.2515694201292575	2457843
2457925	SE	a description of the apt language	1963	5.3339700004296535	6.0453743958442265	2457952
2458650	PL	a marriage of class- and object-based inheritance without unwanted children	1995	5.0437791605572215	7.357544797039234	2458677
2459091	SE	static analysis of xml transformations in java	2004	5.399833148005862	7.0795032927163755	2459118
2459463	DB	lazy database access with persistent predicates	2007	5.430646597892528	7.1154944280102335	2459490
2459842	PL	dimensions of object-oriented modeling	1992	5.67094047308153	7.109691900225316	2459869
2460181	HPC	coordination languages for parallel programming	1998	6.146057361216197	6.231735289795613	2460208
2460304	PL	efficient and flexible incremental parsing	1998	4.611548289974032	6.944382484599137	2460331
2460681	PL	flexible rule-based programming for autonomic computing	2015	5.10606084051575	5.850543727659669	2460708
2461110	Vision	optimization across module boundaries	1987	5.4058674288372	6.865837630613741	2461137
2461546	AI	comprehending loops in a process functional programming language	2000	4.509122461783449	7.027384049869298	2461573
2461625	PL	structuring functions with operators	1993	5.889442286522157	6.366337422685316	2461652
2462334	SE	interactive high-level language direct-execution microprocessor system	1976	5.676507768809084	6.506792455261435	2462361
2462470	Logic	on the history of diagnosability and opacity in discrete event systems	2018	4.843841309440744	6.285212206160514	2462497
2462807	Logic	improved state-space construction in automated verification	2008	5.460523785734619	5.5656851971167685	2462834
2463079	OS	modern features for systems programming languages	2006	6.020645739561488	6.678139607637098	2463106
2463638	PL	a generic deriving mechanism for haskell	2010	4.413790177897517	7.402959329228926	2463665
2464372	PL	a parsing machine for pegs	2008	5.022147038720611	7.090749754995789	2464399
2464866	AI	black box techniques for debugging unsatisfiable concepts	2005	4.4252114432750425	5.593155174579756	2464893
2464890	DB	separate compilation in modula-2: an approach to efficient symbol files	1986	5.567276858282225	6.71230489402029	2464917
2465057	PL	type systems as macros	2017	4.643478284983106	7.4494690837084345	2465084
2465552	EDA	a portable logic simulation system for development of flats machine	1984	5.951734866093368	6.789395299724281	2465579
2465780	PL	fast, flexible, and declarative construction of abstract syntax trees with pegs	2016	5.1275638114777955	6.760430829176655	2465807
2465790	NLP	a flexible xml-based regular compiler for creation and conversion of linguistic resources	2002	5.850764658102433	6.464938515400412	2465817
2466060	HPC	an algebraic front-end for the production and use of numeric programs	1981	5.4267289662346805	6.535424412142353	2466087
2466339	DB	the reaction ruleml classification of the event / action / state processing and reasoning space	2006	5.661304597060082	5.713962350668102	2466366
2466534	PL	openmath support under csl-hosted reduce	2000	5.604024328934684	6.329047264521392	2466561
2466631	HPC	compositional specifications of parallel programs: nondeterministicdata flow	1994	5.011848741436098	5.825494627859071	2466658
2466923	Logic	solving the ttc 2011 compiler optimization case with qvtr-xslt	2011	5.5799122662361835	7.3681317517105995	2466950
2467348	PL	report on a user test and extension of a type debugger for novice programmers	2014	6.018680606666067	5.983610460767393	2467375
2467418	PL	a brief history of just-in-time	2003	6.276761353428558	6.198589172483745	2467445
2467922	PL	module-sensitive program specialisation	1997	5.174216063040992	6.986226942040022	2467949
2468686	Logic	system verification tools based on monadic logics	2003	4.462504745344691	5.723624208695752	2468713
2470820	SE	expressing program requirements using refinement lattices	1993	5.330740213268575	6.615589067366095	2470847
2470987	Logic	a feedback inheritance model	1992	5.078500491122141	7.44036334813077	2471014
2471067	SE	verification of concurrent software with flavers	1997	5.51094660768688	6.222311723215365	2471094
2471107	DB	integrating regular expressions and snobol patterns into string scanning: a unifying approach	2016	4.3906994369858685	6.669020611562271	2471134
2471783	PL	sts: a share taper system for storage area networks	2004	6.0253901075454435	5.974366086671307	2471810
2471890	PL	aspect oriented programming: a language for 2-categories	2011	4.843095262406209	7.056672176228693	2471917
2472245	Logic	an ontology of specification patterns for verification of concurrent systems	2018	5.357614964598982	5.848434217863616	2472272
2474347	ECom	elements of style among machine-generated cobol flowcharts	1978	6.2077903253563536	5.997003030381429	2474374
2474691	SE	requirements for a test specification language for protocol implementation testing	1983	6.080651130670142	5.88189169794099	2474718
2474973	SE	automated fault localization using potential invariants	2003	5.980190482376474	5.611044885688101	2475000
2475317	OS	intensional view of general single processor operating systems	2013	5.236587298097518	7.060941313134105	2475344
2475497	SE	command revisited	2004	5.976883319628108	7.42741994163736	2475524
2475850	AI	automatic induction of devs structures	1995	6.009717005280986	6.173648246136026	2475877
2476712	SE	removing and restoring control flow with the value state dependence graph	2012	5.100447603370049	7.429700322770906	2476739
2476809	AI	stampl: a filtration-oriented modeling tool for multistage stochastic recourse problems	2009	5.423859213362861	6.172113396492463	2476836
2476879	PL	mail merge as a first programming language	1993	5.960604453697018	6.364283158920218	2476906
2477219	AI	knowledge representation and reasoning in a system integration logic in objects	1993	5.084638060753818	6.065696003360873	2477246
2477681	HPC	ace: an associative calculus data structure☆	1998	5.074882308319274	6.24464450809792	2477708
2477684	SE	the formal specification of a small bookshop information system	1988	5.833905238330487	6.332859532009577	2477711
2477710	DB	partitioning of algebraic subexpressions in computer algebra systems: an alternative to matching with an application to symbolic integration	2015	4.4343537370930655	6.415789569303771	2477737
2477992	AI	parallel composition and unfolding semantics of graph grammars	1996	4.457820576460897	6.0238859459926175	2478019
2478558	PL	from algebras to objects: generation and composition	2005	4.568377844432378	7.218102934909448	2478585
2479765	Robotics	a new programming paradigm inspired by artificial chemistries	2004	5.453926725294359	5.89982969474237	2479792
2479994	PL	on the formal definition of pl/i	1968	6.015240473218337	6.59414497262563	2480021
2480246	HCI	strategic directions in computing research-concurrency working group report	1996	5.344229678056641	7.138086851617478	2480273
2480312	DB	the advantages of stream output procedures over format-dominated record transmissions	1977	5.3857160420692445	6.252808483785327	2480339
2480803	PL	c program verification in spectrum multilanguage system	2011	5.001012965282719	7.42265706084764	2480830
2481268	PL	acid: a debugger built from a language	1994	5.9937806710218124	7.233617374282403	2481295
2482133	Arch	class-graph inference for adaptive programs	1997	5.314003637680545	6.833833991555668	2482160
2482506	Logic	pervasive process calculus	2006	5.099616729017836	5.892611692612281	2482533
2482838	PL	adding graph transformation concepts to uml's constraint language ocl	2001	4.71167532063336	6.88419654062351	2482865
2483046	Logic	k-maude: a rewriting based tool for semantics of programming languages	2010	6.245384191148234	6.8563281106525125	2483073
2483087	Logic	a unified approach to the study of asynchronous communication mechanisms in real-time systems	2000	5.47564088991263	5.666454208453872	2483114
2484062	Theory	overlapping token definitions	1998	4.75660634262776	6.318684227308058	2484089
2484272	Arch	improving computer security using extended static checking	2002	5.207958916593372	6.583417022218	2484299
2485271	DB	standard relational and network database languages	1988	4.599245003310816	6.462344561116468	2485298
2486669	PL	debugging systems at the source language level	1963	5.988295760000925	6.732056806319702	2486696
2486874	PL	ecoop 2000 — object-oriented programming	2000	5.1731649661901455	7.061674426965598	2486901
2486906	DB	pathfinder: xquery off the relational shelf	2008	4.95888416701971	5.6083925889210064	2486933
2486975	DB	a large-scale, general-purpose electronic digital calculator: the ssec	1982	6.0864685652417325	5.8533786756220945	2487002
2487397	Embedded	the free software movement and the gnu/linux operating system	2006	5.952774939999813	6.701575594858369	2487424
2488267	HCI	at humboldt - development, practice and theory	1997	6.069701054388398	5.629268267988862	2488294
2488622	PL	java: data structures and programming	1998	5.424077148156671	6.492154790275612	2488649
2488878	NLP	formal definition of sdl-2000 - compiling and running sdl specifications as asm models	2001	6.193269455414803	6.666670073095533	2488905
2489133	SE	petri nets applicability to music analysis and composition	2007	6.0259142755090656	6.744329558956191	2489160
2489599	PL	a general business-oriented language based on decision expressions	1964	5.976938824394733	6.39864056905328	2489626
2489845	HCI	interactive algorithms 2005	2005	5.5946034465273975	6.1942148752012125	2489872
2490263	NLP	automatic generation of semantic attachments in fol	1980	4.454678364340793	6.2118552721255815	2490290
2490508	AI	the g12 project: mapping solver independent models to efficient solutions	2005	4.712040298615264	5.9321784087344405	2490535
2490573	AI	an efficient syntactic approach to structural analysis of on-line handwritten mathematical expressions	2000	4.607386290249057	6.2160049399875374	2490600
2490799	PL	logicobjects: a portable and extensible approach for linguistic symbiosis between an object-oriented and a logic programming language	2013	5.976620450321229	6.92891946615937	2490826
2491000	PL	compiler construction using attribute grammars	1982	5.770194213132515	6.7811650981276514	2491027
2492558	HPC	formalising boost posix regular expression matching	2018	4.4120603248409855	7.365296296646617	2492585
2493176	PL	a law-based approach to object-oriented programming	1987	5.7291229100092105	6.971970763009943	2493203
2493320	EDA	mobile embedded system co-verification modeling using java observability	2003	5.959057271241328	6.026701408953304	2493347
2494060	PL	a semantics of multiple inheritance	1984	4.4941020763752535	6.702344064897223	2494087
2494310	SE	pascal for school and hobby use	1980	6.04624654143628	6.338068454665345	2494337
2494658	SE	some uses of truncated boolean vectors in analysis	1990	4.7535858494387355	6.3044378707834055	2494685
2494694	DB	a concept representation language (crl)	2018	6.022865701638894	6.0814771250998225	2494721
2495565	Arch	a hybrid approach to operating system discovery using answer set programming	2007	6.215804076107151	5.658565652971389	2495592
2496148	PL	structured d-chart: a diagrammatic methodology in structured programming	1982	5.9963791351963165	6.381237075719651	2496175
2496223	Arch	program design languages: how much detail should they include?	1987	5.926754358742127	6.802110336619616	2496250
2496460	Logic	automatic programming: a tutorial on formal methodologies	1985	5.210478483352191	5.744921595275196	2496487
2496607	AI	an integrated platform for intuitive mathematical programming modeling using latex	2018	6.025551682859713	6.263960337582363	2496634
2496665	PL	communications between independently translated blocks	1962	5.426652932407376	6.7624012673660205	2496692
2497167	PL	messages vs. remote procedures is a false dichotomy	1983	5.460614153726473	7.427570341882662	2497194
2497615	OS	"""an approach to tableau inferencing with """"hardwired"""" heuristics"""	1990	4.563234366753992	6.1868304131566605	2497642
2497657	PL	the user interface of gpss/pc	1984	5.635101349430201	6.724569010900017	2497684
2498849	PL	parsing distfix operators	1986	5.546388550919764	5.967215965173897	2498876
2499596	PL	a step towards complementary programming	1985	5.376035430121622	6.370894173622117	2499623
2499660	PL	redesigning with traits: the nile stream trait-based library	2007	6.0552014065678925	7.432167736148107	2499687
2499673	Robotics	how behavior trees modularize hybrid control systems and generalize sequential behavior compositions, the subsumption architecture, and decision trees	2017	6.105390703678196	7.192907406673435	2499700
2500342	PL	denotational semantics of an object-oriented programming language with explicit wrappers	1993	4.9832490356211325	7.217141977435602	2500369
2500798	SE	seven layers of knowledge representation and reasoning in support of software development	1992	5.249527747270919	6.508326733291482	2500825
2500880	PL	pi: a case study in object-oriented programming	1986	6.0970871402400055	7.163679094204847	2500907
2501057	Arch	a rudimentary machine: experiences in the design of a pedagogic computer	1998	5.828841162942061	6.676618368759363	2501084
2502788	PL	formal semantics of apl: a review of initial findings	2002	6.057970676211832	6.256495057392478	2502815
2502838	SE	assessing databases in .net - comparing approaches	2009	5.728829326602835	6.632364020287117	2502865
2503064	PL	garbage collection and data abstraction based modular programming	1999	5.372832549996707	6.501922325737473	2503091
2503200	PL	repairing syntax errors in lr-based parsers	2002	4.807370106175396	6.5354975793454315	2503227
2503558	PL	simple modules for grace	1998	4.834969252972488	6.922652351164008	2503585
2503797	Crypto	analyzing individual proofs as the basis of interoperability between proof systems.	2017	5.334684480315917	5.5754657588497425	2503824
2504285	PL	numerical options models without programming	1997	5.9170159534127595	6.565274673865009	2504312
2505427	SE	implementing strings in pascal	1979	4.6076519561534415	6.76307765887841	2505454
2505463	Logic	computing musical meter - an approach to an integrated formal description	2014	5.246218406139309	5.746648880072705	2505490
2505669	PL	operators and precedence in programming languages	2015	5.043769312591252	6.942730675748582	2505696
2505703	DB	an overview of the venusdb active multidatabase system	1996	5.282430065156152	5.5530527959784965	2505730
2506253	PL	"""""""objects first, interfaces next"""" or interfaces before inheritance"""	2004	6.108745519630237	6.652945021379918	2506280
2506292	PL	a framework for programming denotational semantics in c++	1996	4.573811809655889	7.323675383884972	2506319
2506318	PL	an object-oriented tower of babel	1991	5.88495460609122	6.454292160585613	2506345
2506742	Security	extended data formatting using sfio	2000	5.157484547989228	7.090020280903588	2506769
2507693	Arch	strategy choice and change in programming	1993	4.911579704158855	5.579842068564844	2507720
2508878	AI	project report on lp + : a second generation logic programming language	2000	5.798304502070472	7.187631316321727	2508905
2508991	PL	incremental evaluation for attribute grammars with unrestricted movement between tree modifications	1988	4.382226610637522	7.277433940930012	2509018
2509868	Theory	on the realization of extended control structures in fortran	1983	5.723912511352862	5.700648572777118	2509895
2511507	PL	typing evolving ambients	2001	4.8500321262491415	5.67722689375547	2511534
2511777	SE	manipulating software semantics with unified computational model and software quark model	1999	5.683381063026538	7.385036347983893	2511804
2512594	DB	extending functional database languages to update completeness	1995	4.706713580931141	6.153548118176698	2512621
2512808	Graphics	writing reusable digital topology algorithms in a generic image processing framework	2010	5.8720730950141125	6.236317482647814	2512835
2512868	PL	kava - a powerful and portable reflective java (poster session)	2000	6.1805378777258255	6.940274480100743	2512895
2512929	PL	developing efficient interpreters based on formal language specifications	1994	4.835084721743499	7.411248235063796	2512956
2513191	ML	proper packaging promotes parameter passing profiency	1995	6.089889387815523	5.928048701260653	2513218
2513378	OS	a new robust and efficient implementation of controlled types in the gnat compiler	2012	5.984964999061779	6.809303999504503	2513405
2513567	SE	the importance of being declarative	2013	6.027211198365248	6.335919374677324	2513594
2513872	PL	haskell 98 libraries: cpu time	2003	5.182601759536701	5.537692369978787	2513899
2514192	Robotics	the fermat maintenance environment tool demonstration	2009	5.467423310670571	6.611812511785165	2514219
2514810	PL	representing calendrical algorithms and data in prolog and prolog iii	1995	4.896618004424736	6.788811562060758	2514837
2514930	PL	fad, a functional programming language that supports abstract data types	1980	4.493483237233232	6.876415933152227	2514957
2515173	DB	pascal as host language of computer algebra systems	1983	5.447462489508717	6.3617882565925274	2515200
2515237	HCI	vax debug: an interactive, symbolic, multilingual debugger	1983	6.197988401775991	6.317900326569798	2515264
2516555	SE	an incremental semi-automatic method for component recovery	1999	6.080706349519692	5.927874404874004	2516582
2517207	AI	autonomous units and their semantics — the sequential case	2006	5.602195081840406	6.152292490318981	2517234
2518017	PL	development of self-multiplicating compiler writing system	1986	5.6200973341475455	6.8238980554897735	2518044
2518100	PL	programming persistence in chi	1992	6.064581104188592	6.914581094003549	2518127
2519558	SE	assembly language as object code	1983	5.451047622952297	6.601079327624714	2519585
2519662	SE	experiences with a random test driver	1995	6.087301093346731	5.6921908890398925	2519689
2520339	PL	debugging pl/i programs in the multics environment	1972	5.900666799755727	6.694248321828535	2520366
2520826	Theory	implementing deletion in b+-trees	1995	5.943507078332766	6.384962369130188	2520853
2521288	PL	object-oriented programming without inheritance (invited talk)	2015	4.578651555777173	7.031470101126818	2521315
2521879	Arch	the programmable compiler	1982	4.788899570798695	7.417532541329058	2521906
2521889	Crypto	computing efficient operation schemes for chemical plants in multi-batch mode	2001	6.277730451450144	6.8350388989339494	2521916
2521919	NLP	partners in science: ojs, a collaborative researchers' workbench and an open repository	2007	5.689353964527719	5.712850859028059	2521946
2522137	Logic	from runtime verification to evolvable systems	2007	6.127350003637619	7.41642757709816	2522164
2522153	PL	on repair with probabilistic attribute grammars	2017	5.494454212458639	7.313521146608798	2522180
2522170	PL	on translation of boolean expressions	1962	4.410786370663999	6.557703360327784	2522197
2522840	PL	an operating environment for dynamic-recursive computer programming systems	1965	5.233029237959544	7.243269072052008	2522867
2523695	PL	using formal procedure parameters to represent and transmit complex data structures	1988	4.991524441776503	6.616204738733559	2523722
2523912	Theory	use of tunis in an operating systems design course	1984	4.395194504697522	6.4311482302391925	2523939
2524081	EDA	a formal specification and verification technique for cache coherence protocols	1992	5.443358835844957	5.540623680488082	2524108
2524705	SE	the use of functional annotations in verifying imperative programs	1990	5.537759914835844	7.4270047637605545	2524732
2524966	PL	an example of multiple inheritance in c++: a model of the lostream library	1989	4.858766082317125	6.1993500064462745	2524993
2525106	PL	proof techniques for hierarchically structured programs	1977	5.922320041880036	7.0457635345410266	2525133
2525383	HCI	webgraph: things you thought you could not do with java™	2004	5.241234773496025	7.12757326801275	2525410
2525613	PL	import is not inheritance - why we need both: modules and classes	1992	5.5519384738603295	6.912329872223518	2525640
2526941	Arch	a unified code generator for multiple architectures	1985	5.976345215376928	6.562050808727328	2526968
2527733	Logic	views, program transformations, and the evolutivity problem	2010	5.246114712958165	5.535091828372693	2527760
2527819	PL	parsing with c++ classes	1994	4.905487205697182	6.657249243414543	2527846
2528032	PL	bindings persistent programming languages	1988	5.934997308548717	7.176310051577313	2528059
2528204	Robotics	a visualization and explanation tool for debugging eca rules in active databases	1995	5.60999145200805	6.684417521723508	2528231
2528532	PL	animating matrix algorithms	1987	5.110193572430801	5.586503538393735	2528559
2528637	PL	the larch shared language: some open problems	1995	5.957804729847166	6.900804880879963	2528664
2529020	Logic	csolve: verifying c with liquid types	2012	5.272459463300122	6.967631640598	2529047
2529502	PL	mabl: a tool for mapping pseudocode to multiple implementation languages	2007	6.140209757472178	6.218640665287208	2529529
2529789	PL	visualizing the evaluation of functional programs for debugging	2017	6.068760899000924	6.942405725521375	2529816
2530404	PL	visual specification of blocks in programming languages	1987	5.6539255648117015	6.466789755520276	2530431
2530442	EDA	timed petri nets, linear logic, and performance modeling	2004	5.37919390799429	5.746611430369857	2530469
2531891	SE	staged program repair with condition synthesis	2015	4.739553786648905	5.561584827199041	2531918
2534034	PL	efficient and comfortable error recovery in recursive descent parsers	1990	5.067861176884693	7.000222981714662	2534061
2534125	Theory	conformance statements for version 2 of the simple network management protocol (snmpv2)	1996	6.291135566405381	5.919792037075617	2534152
2535199	PL	modularization in the pilot compiler and its effect on the length	1976	5.625662610785946	5.854609727896446	2535226
2535495	PL	a macromodular meta machine	1967	5.366311435505959	6.988383219818894	2535522
2535641	PL	the benefits of enumerated types in modula-2	1991	4.78721844826278	6.971318395387591	2535668
2535650	OS	lexical file names in plan 9, or, getting dot-dot right	2000	5.129324244494285	6.9658125618009885	2535677
2535879	Arch	on the verification of computer architectures using an architecture description language	1983	4.918241943834453	7.441314534803237	2535906
2535908	Graphics	parallel graph grammars with instantiation rules allow efficient structural factorization of virtual vegetation	2013	5.437532656804102	6.0450292152238045	2535935
2536233	ML	fourier-motzkin elimination software for information theoretic inequalities	2015	4.697200742809351	6.185176409747307	2536260
2536280	PL	alpha - an automatic programming system of high efficiency	1966	5.270295786886595	6.658046679770112	2536307
2536446	PL	polymorphic types in acl2.	2014	4.695964887721744	7.438841986609599	2536473
2537000	Security	"""corrigendum to """"fine-grained control-flow integrity based on points-to analysis for cps"""""""	2018	5.335648928756708	5.882994729690527	2537027
2537259	PL	the object oriented pre-compiler	1983	5.904933692691723	7.1039267843093326	2537286
2537290	Robotics	a systems re-engineering case study: programming robots with occam and handel-c	2011	5.429928939040619	5.667669955211859	2537317
2537328	Theory	some remarks on the syntax of symbolic programming languages	1963	5.1178964259417326	6.016222521425218	2537355
2537815	DB	type derivation using the projection operation	1994	4.4458370122738184	6.948611765468919	2537842
2538586	HCI	implementing a polynomial factorization and gcd package	1981	5.705612200513978	6.021229439004752	2538613
2540281	PL	deriving programs by combining and adapting refinement scripts	1995	6.139508010518368	6.451324305907921	2540308
2540617	PL	a model c++ tree iterator class for binary search trees	1997	4.729223596170546	7.066963826633513	2540644
2541521	Logic	the psi program model builder - synthesis of very high-level programs	1977	5.140416365652432	6.6047228692862	2541548
2541902	PL	classic data structures in java	2001	4.6163196522788095	6.997238973155707	2541929
2542034	PL	teaching ebnf first in cs 1	1994	5.205348182329977	6.714916280905492	2542061
2542758	Logic	an algorithm for translating lotos behavior expressions into automata and ports	1989	5.273819616393116	5.703649662246572	2542785
2543080	PL	integrating variables and operations into rule-based forward chaining systems	1991	4.650657730687014	6.079127088504159	2543107
2543103	PL	tado ichikawa, erland jungert and robert r. korfhage, editors, visual languages and applications, plenum press (1990)	1991	5.701811210975728	6.1782378330810355	2543130
2543277	DB	programming with turing and object oriented turing - featuring object oriented turing software	1995	5.454482487536064	5.7389471785594806	2543304
2543468	Embedded	ada floating-point arithmetic as a basis for portable numerical software	1983	5.590209742638834	6.950263864265389	2543495
2543853	SE	inconsistent path detection for xml ides	2011	5.349333995918375	6.2587802123764815	2543880
2544179	AI	visual representation of procedural knowledge	2000	6.141422231362211	6.036810705899508	2544206
2544694	PL	a generalized technique for symbol manipulation and numerical calculation	1961	4.674998268899947	6.363166600543843	2544721
2544918	PL	using moded type systems to support abstraction in logic programs	1992	4.482427694276905	5.779268306266006	2544945
2545743	PL	the next 700 network programming languages (invited talk)	2017	4.679323769088152	6.6118365721868475	2545770
2545892	Logic	an exception handling construct for functional languages	1988	5.424803704697565	5.805791063176839	2545919
2546231	OS	reducing program development costs	1980	5.993157861196848	6.266786771952453	2546258
2546762	HPC	modern technologies aimed at the development of large programs for solving computational problems on computers with various architectures	2006	6.101488240003571	6.518670035786543	2546789
2547192	EDA	high level techniques and software tools for custom vlsi parser design	1985	5.740313122329942	5.833857653443707	2547219
2548156	PL	plushi: an embeddable, language agnostic, push interpreter	2018	4.769462272833267	7.006368958054516	2548183
2549107	NLP	dynamic interpretations of constraint-based grammar formalisms	1995	5.224147023805887	6.5453795582649645	2549134
2549117	PL	contributions to teaching object oriented design and programming	1989	4.977900150552354	6.298011801750343	2549144
2549557	PL	dynamic tabbing for automatic indentation with the layout rule	1998	6.070740047500112	6.709492447891058	2549584
2550676	DB	a plot-manipulation algebra to support digital storytelling	2009	5.029792379584864	5.630477035438947	2550703
2551198	SE	an algebraic approach to the standardization and the certification of graphics software	1983	4.5591031994061675	6.212100587081175	2551225
2552459	PL	haskell for ocaml programmers	2014	5.476590473977038	7.1157065497048295	2552486
2552565	PL	a simple technique for handling multiple polymorphism	1986	4.9120613419846935	7.299035018723603	2552592
2553215	PL	an architecture for mostly functional languages	1986	4.961015906337759	6.775361116845668	2553242
2553281	Graphics	hierarchical and heterogenous reactive agents for real-time applications	2003	5.731449726121747	5.595874437660153	2553308
2554140	SE	operations for programming in the all	1985	6.276993818092428	6.619040998757215	2554167
2555375	Logic	runtime verification using larva	2017	6.227176872827423	5.794295033616312	2555402
2555489	NLP	reachability and error diagnosis in lr(1) parsers	2016	4.859081662153617	6.342259785189775	2555516
2555737	PL	converting sac-2 code to lisp	1986	5.612170273747614	6.330928574797768	2555764
2557260	NLP	list and execute forms of macros	1976	5.97151293987779	6.423091179567101	2557287
2557906	PL	from syntactic theories to interpreters: a specification language and its compilation	2000	5.053403792697301	7.268444148752488	2557933
2558145	HCI	implementing layered designs with mixin layers	1998	5.549153545316278	7.154438172617878	2558172
2558551	PL	symbolic interpretation and tracing of pascal-programs	1978	5.269421586961768	6.738575085796192	2558578
2559865	PL	towards monolingual programming environments	1985	4.951302821643459	6.057190474369418	2559892
2559964	AI	four dimensions of programming-language independence	1992	5.888355820866476	6.3661675201334	2559991
2560128	PL	uu for programming languages	2000	5.412361878119464	6.56850426765329	2560155
2560311	DB	mapping and integration of schema representations of component specefications	2005	4.42597073300872	5.678434601611143	2560338
2560935	PL	object oriented semantics directed compiler generation: a prototype	1995	5.318363407520119	6.911154170024584	2560962
2560967	Logic	cobol report program generation by macro processor	1981	5.8421032055463495	5.557218800062923	2560994
2560993	PL	preserving the documentary structure of source code in language-based transformation tools	2001	6.118256350488077	6.836382786035638	2561020
2561051	AI	synthesizing visual and action routines using constraint programming	2006	4.7094247333509545	5.5860060253016295	2561078
2561067	HCI	model checking the interaction of erlang components	2005	5.775542546187896	5.631800325672322	2561094
2561948	NLP	controlled natural language processing as answer set programming: an experiment	2014	4.533680694777142	5.833183946830214	2561975
2562075	PL	feature-oriented programming with object algebras	2013	4.8235998273063885	7.432406701629591	2562102
2562244	Crypto	maude msos tool	2007	4.851083908668575	6.805838392205063	2562271
2562887	AI	implementing the product automation formalism	1987	6.095204732091393	7.430251258167331	2562914
2563130	DB	the audacity of hope: thoughts on reclaiming the database dream	2010	5.120932750985994	6.5528759736434425	2563157
2563194	PL	facile programming	2012	5.5571541601081895	6.534962613288922	2563221
2563794	PL	structured calculational proof	1997	4.425027094235348	6.352348565669437	2563821
2564110	PL	pascal's emulation of a prolog program	1988	5.647686421845296	6.839549970071359	2564137
2565217	PL	a poor man's approach to dynamic invocation of c++ member functions	1994	5.672824032588285	7.446905689840822	2565244
2565271	PL	l-flat: logtalk toolkit for formal languages and automata theory	2011	5.779558013209348	6.612051332434142	2565298
2565642	NLP	unification-based grammars and tabular parsing for graphical languages	1991	4.662992718000098	6.200974911992764	2565669
2566566	HPC	support tools for supercomputing and networking	1999	4.909001066997186	6.235653137199316	2566593
2566789	NLP	the lilfes abstract machine and its evaluation with the lingo grammar	2000	4.3757479796946885	6.705140873528622	2566816
2566892	PL	a multi-purpose language processing laboratory	1987	5.891499190223631	6.532807500489398	2566919
2567220	HPC	a distributed implementation of flat concurrent prolog on multi-transputer environments	1991	5.035768318861769	6.235111558018227	2567247
2567674	PL	programming in an interactive environment: the lisp experience	1978	5.390398510538216	6.530590196821513	2567701
2567941	SE	recent progress in software testing, debugging and analysis: a survey	2014	6.1471176208815255	5.665157062280378	2567968
2568294	PL	the implicit calculus: a new foundation for generic programming	2012	4.377152870892459	7.262097738420242	2568321
2569210	OS	calculational derivation of a counter with bounded response time	1993	5.510000342148189	6.563285485187382	2569237
2569255	HPC	a programming environment for binding-time based partial evaluators.	1992	5.559721108025116	5.638628095497285	2569282
2569404	PL	dynamic linking of software components	1997	5.868981579060534	7.088061850738285	2569431
2569582	Logic	a verifier and timing analyser for simple imperative programs (abstract)	1993	4.511702899077754	6.75208991167818	2569609
2569920	EDA	use of stack simplifies m68hc11 programming	1992	5.7073197020925175	6.925717176097644	2569947
2570580	SE	development of computer programs by problem analysis diagram(pad)	1981	5.8839240097052565	6.11937614871246	2570607
2571504	HPC	symbol manipulation in fortran: sasp i subroutines	1964	4.749165719285441	6.609500543493173	2571531
2571738	PL	type independent modules: the preferred approach to generic adts in modula-2	1987	5.007904188797959	6.647662515645036	2571765
2572050	PL	program synthesis and transformation techniques for simulation, optimization, and constraint satisfaction	2000	4.710696873798961	5.761820508896824	2572077
2572052	AI	general euler diagram generation	2008	5.006472677120205	5.554763239106124	2572079
2572141	SE	testl: an environment for incremental test suite design based on finite-state models	1991	5.758885215630876	5.96972864345366	2572168
2572299	PL	hierarchic syntax error repair for lr grammars	1982	4.763344547970949	6.432438221590807	2572326
2572370	Theory	modelling and simulation of quantum teleportation and dense coding using predicate/transition-nets	2008	5.086409939487946	6.787026809079099	2572397
2573866	HCI	the design and realization of a common syntax-directed editing system	2003	5.940068672825613	6.460097229965835	2573893
2574454	OS	the ariadne debugger: scalable application of event-based abstraction	1993	5.932119981515124	5.647309385591256	2574481
2575167	PL	object-level recombination of commodity applications	2010	5.685658708853371	6.859910886894648	2575194
2575339	Logic	reactive modules	1999	5.346698195108455	6.083976933992479	2575366
2575810	PL	types for units-of-measure in f#: invited talk	2008	5.349511864503175	6.801978472266714	2575837
2575816	PL	regular expression types for strings in a text processing language	2002	4.989897787688541	7.028109478295397	2575843
2575867	PL	a translator-oriented symbolic programming language	1962	5.254131403692671	6.727165229085839	2575894
2575996	SE	compressing the state space representation of lotos specifications	1993	5.269561127743962	5.561906102768086	2576023
2576567	DB	a comparison of implementations of basic evolutionary algorithm operations in different languages	2016	4.9321790982872	7.020510296918131	2576594
2577632	DB	a framework for managing schema versioning in object-oriented databases	1992	5.30028711126889	6.6006212510236	2577659
2578041	PL	interpreting xpath by iterative pattern matching with paisley	2014	5.2612509153668405	6.101979619320833	2578068
2578070	PL	the power of pi	2008	4.945848407669707	7.142606624642602	2578097
2578368	Theory	comment on computing the k shortest paths in a graph	1977	5.497549760978418	5.652395020306478	2578395
2578622	Arch	a remote processing system for the apt language	1968	5.994386899342028	6.389631112995236	2578649
2578682	Logic	constraint-based languages and systems (abstract)	1993	5.927931918074078	5.990256806946629	2578709
2579027	PL	integration of concurrency control in a language with subtyping and subclassing	1995	5.06358406261868	7.373409975056907	2579054
2579372	PL	a logic-based approach to software system safety and security	2000	5.7662739225128306	7.226049273869671	2579399
2579406	PL	fhj: a formal model for hierarchical dispatching and overriding	2018	4.506313576630936	6.556974315766205	2579433
2579594	PL	high-level language implications of the proposed ieee floating-point standard	1982	6.0243191153559925	6.0788612646831774	2579621
2579831	PL	improving first-class array expressions using prolog	1988	5.1944638265043785	5.581580624924633	2579858
2580299	SE	reasoning about interactive systems with stochastic models	2001	4.426840168503973	5.735304405905795	2580326
2580658	EDA	luna fragmented programming system, main functions and peculiarities of run-time subsystem	2011	5.793026428769753	6.015017096955672	2580685
2581068	NLP	08271 executive summary - topological and game-theoretic aspects of infinite computations	2008	4.68977114145526	6.606259505326513	2581095
2581140	Embedded	design, formalization and realization of harmonic box coordination language : an externally timed specification substrate for arbitrarily reliable distributed systems	2014	5.541808101360772	5.9003231780439975	2581167
2581405	SE	the refinement paradigm: the interaction of coding and efficiency knowledge in program synthesis	1981	5.3693447967247785	6.395205593610313	2581432
2581472	EDA	ness: a simulation environment for behavioral design of neural networks for prediction and control	1996	6.171441245316172	5.9383043362333	2581499
2581529	PL	fortran 77	1978	5.801951569647438	6.258338997112653	2581556
2582273	PL	graphical and incremental type inference: a graph transformation approach	2010	4.4433344215270525	7.201963581269469	2582300
2582565	Logic	automatically generating universal attachments through compilation	1990	5.202548881436237	6.909166838097558	2582592
2583100	PL	enforcing strict model-view separation in template engines	2004	5.934107921260258	7.398335553821586	2583127
2583331	HCI	join token: a language mechanism for programming interactive games	2012	6.132315582767877	7.327126541645291	2583358
2583363	Logic	design and implementation of abstract graphical data types	1979	5.725936136337147	6.497104795415778	2583390
2583517	PL	towards certified virtual machine-based regular expression parsing	2018	4.4900046331080565	6.785043234628568	2583544
2583540	HCI	pep: an interactive programming system with an algol-like programming language	1984	5.818250308789447	6.351072803715449	2583567
2584097	PL	concepts, syntax and semantics of segras : a specification language for distributed systems	1989	6.081316712312442	5.7668675246996175	2584124
2584161	PL	qstream: a suite of streams	2013	4.479971112477629	6.462362497901101	2584188
2585226	HCI	intelligent keyboard layout process	1993	6.2646407458641855	6.121609782397197	2585253
2585586	DB	models of class specification intersection of object-oriented programming	2013	4.801427627735364	6.505213233361018	2585613
2585598	NLP	e-parser: an implementation of a deterministic gb-related parsing system	1994	5.367098774424374	5.801082262849553	2585625
2585619	SE	dependency analysis of recursive data structures using automatic groups	1998	5.574449049007673	7.100603565009129	2585646
2586020	PL	blnsys - a 1401 operating system with braille capabilities	1965	5.934190053010818	6.424816285071918	2586047
2586539	AI	handling syntactic constraints in a dtd-compliant xml editor	2003	6.110122008625883	5.606032587091381	2586566
2586623	PL	design and implementation of a diagnostic compiler for pl/i	1973	5.732873245431988	6.797051125189783	2586650
2586692	AI	learning the language of error	2015	4.440695240593978	6.28180302357772	2586719
2586919	SE	petri net models of program execution in feedback data flow environments.	1980	5.761121941957978	5.808349643725152	2586946
2587386	Theory	"""comments on dumitrescu's """"a selectable sloppy heap"""""""	2016	5.487918699973874	6.089238335337027	2587413
2587540	PL	an algorithm for equivalence declarations	1961	4.566668365322035	6.837636295416626	2587567
2588069	PL	new languages from old: the extension of programming languages by embedding, with a case study	1976	4.883909991328649	7.191543992803018	2588096
2588147	PL	a flexible notation for syntactic definitions	1982	6.077880225267467	6.403397920165488	2588174
2588725	EDA	design closure (panel session): hope or hype?	2000	4.77809474211676	5.841203277782924	2588752
2588758	Theory	degrees of non-determinism and concurrency: a petri net view	1984	5.127823129192594	6.0580013743877	2588785
2589551	PL	an object-oriented programming discipline for standard pascal	1987	6.258037935927176	5.618856835825678	2589578
2589625	SE	scalability analysis of the radar decision support tool	2017	5.314901094741443	6.213358809684387	2589652
2591540	EDA	modelling and verification of iec 61499 applications using prolog	2006	4.8830238812062445	7.050756042631372	2591567
2591884	PL	towards a generic computational intelligence library: preventing insanity	2015	6.265109600767704	6.542000573250718	2591911
2592045	Robotics	unified relational framework for programming paradigm combination	1996	5.420090185190769	7.082728178115856	2592072
2592520	Graphics	the design of macaulay: a system for computing in algebraic geometry and commutative algebra	1986	5.620958916916388	6.288759487348213	2592547
2592651	PL	aparel - a parse-request language	1969	5.276024195517111	6.8646617745688845	2592678
2593135	AI	a new compression scheme for syntactically structured messages (programs) and its application to java and the internet	1998	5.930097437157945	6.254245826207397	2593162
2593903	DB	skeletons and techniques for the systematic development of constraint logic programs	1994	4.767487616923632	7.190929235827503	2593930
2594184	PL	gpmx: a portable general purpose macro processor adapted for preprocessing fortran	1976	5.057976918950809	6.874094157631192	2594211
2594313	NLP	comments on an error‐recovery scheme by hartmann	1980	4.718077869427994	6.489897092354647	2594340
2594663	AI	the prolog phenomenon	1980	4.602337374781558	6.301401250098169	2594690
2594823	PL	evaluating the tracing of recursion in the substitution notional machine	2018	5.884867271210152	6.642003146674808	2594850
2595043	PL	optimising code generation with haggies	2010	4.776815067375491	7.157006672448353	2595070
2595434	DB	practical uses of operators in sharp apl/hp	1987	4.708269698871392	6.4343037241469325	2595461
2596043	DB	extending a functional dbpl with eca-rules	1995	5.31472804204075	5.587735103589589	2596070
2596931	AI	laura, a system to debug student programs	1980	5.2167992975168085	7.2140638525381195	2596958
2596988	PL	anlex and ansin: a compiler generator system for beginners	1997	5.890648232907653	6.619358317294207	2597015
2597555	PL	a modular theory of object orientation in higher-order utp	2014	4.519863409535397	7.276462410239903	2597582
2597810	PL	ice™ and ice/t™: tools to assist in compiler design and implementation	2004	5.814944012971356	7.1399362681516685	2597837
2597953	AI	constraint solving and programming: what next?	1997	4.922151197877937	6.319418898726945	2597980
2597996	PL	using abc to prototype vdm specifications	1994	6.084858058290171	7.270290636762981	2598023
2598237	Logic	functional verification of hard real-time programs	1992	5.920000509458562	5.731971331214976	2598264
2598343	HCI	the srts experience: using topo for lotos design and realization	1990	5.6061273492881325	5.538942556152777	2598370
2598440	PL	the idris programming language - implementing embedded domain specific languages with dependent types	2013	5.535107929362158	5.8629487542899295	2598467
2598445	PL	experiments with a space efficient way to store a dictionary	1981	4.963190590540383	6.1372196733939015	2598472
2598488	NLP	default inheritance in an object-oriented representation of linguistic categories	1994	4.463726199254227	6.203215378283661	2598515
2599106	PL	design patterns for sorting	2001	6.168843996482012	6.598048308456105	2599133
2600369	Robotics	stream processing functions	1975	4.7680569131509145	6.946344339963582	2600396
2601731	EDA	design of the b 5000 system	1987	5.74678515334521	6.460082888285233	2601758
2601799	PL	featherweight tex and parser correctness	2010	4.911961841426684	6.842658815634637	2601826
2602693	Vision	on the effective distribution of knowledge represented by complementary graphs	2010	4.481640135066865	5.709699073370477	2602720
2603857	PL	object-oriented and constraint programming for time critical applications	1999	4.972697912834109	5.544779171362019	2603884
2603912	PL	genetic programming	2012	4.520532434627866	6.744227486938187	2603939
2604169	OS	a model for input and output for multilingual text in a windowing environment	1992	6.276516818637711	5.936866274244063	2604196
2604176	PL	contextworkflow: a monadic dsl for compensable and interruptible executions (artifact)	2018	5.742618379500182	7.078302150807638	2604203
2604696	Logic	localizing widening and narrowing	2013	4.844345530658357	5.912164475102358	2604723
2605012	AI	defining software science counting strategies	1982	4.619862968674048	5.862504544605301	2605039
2605221	SE	early experiences with euclid	1981	6.231869472026133	6.448340541975131	2605248
2605352	PL	algebraic model checking	2010	5.303063410161486	7.2488739957770765	2605379
2606092	PL	an extensible module algebra for maude	1998	4.4038715264059665	7.2104202333825445	2606119
2606166	Arch	experiences with distributing graphic software between processors	1982	6.040750421984726	6.2413134182537755	2606193
2606763	Theory	checkmate 2: from the model to the limit	2017	6.072296075303195	5.588299561631329	2606790
2606786	Logic	an innovative teaching tool based on semantic tableaux for verification and debugging of imperative programs	2011	4.968707665328812	6.559635341222171	2606813
2607254	PL	grape: using graph grammars to implement shape grammars	2011	5.956284058558168	6.219354889427813	2607281
2607355	PL	a note on recreating source code from the reverse polish form	1973	4.986179416362472	6.515282473443728	2607382
2607505	PL	introduction to programming with fortran	2018	5.561685200892767	6.532357055505768	2607532
2608162	PL	algorithmic music in haskell (invited talk)	2017	5.789569827044658	6.4769629523847545	2608189
2608837	PL	using an apl approach with java	2002	6.009931372886987	6.8714410559443575	2608864
2610186	PL	martin orlando reporting environment	1968	6.071064662819481	6.319852399695507	2610213
2610744	PL	a mixed approach to adjoint computation with algorithmic differentiation	2015	5.000287381750738	6.7054008957867195	2610771
2612493	Theory	a new style of mathematical proof	2018	4.5403449892225165	5.621391687816975	2612520
2612573	AI	web-based argumentation	2016	4.879508809938718	6.486332109281988	2612600
2612971	DB	database activity at aberdeen university computing centre	1981	6.058452058874755	6.2019195047950495	2612998
2613186	SE	the portability of the bcpl compiler	1971	6.034558181146084	6.510055382377062	2613213
2613548	NLP	lexing and parsing modula-2	1983	5.088978099925017	6.63668758840008	2613575
2613633	PL	scala web frameworks: looking beyond lift	2011	6.014136534207693	6.726555183381564	2613660
2613761	PL	the layers of logiweb	2007	6.173148153190023	5.716776818919004	2613788
2613813	Theory	a programmer's description of l6	1966	6.017939214734253	6.3133664934005465	2613840
2614132	PL	integrating semantics and compilation: using c++ concepts to develop robust and efficient reusable libraries	2008	5.8155341931730815	7.19418920614062	2614159
2614502	DB	prolog applications for database design with the information center	1985	6.255169535819015	5.588007390590576	2614529
2615344	PL	graphs in compilation.	1997	4.981640984845987	6.968936955089244	2615371
2615417	Arch	the chief architect's reflections on symbol iir	1981	6.302706642778942	5.730128427596003	2615444
2615543	Logic	author retrospective for array expansion, array shrinking, or there and back again	2014	5.033286748335035	6.6166731927724936	2615570
2615611	AI	rule schemata for game artificial intelligence	2006	5.8618155908988365	6.132679110258735	2615638
2616081	PL	asdl - an object-oriented specification language for syntax-directed environments	1987	5.202835053360451	6.696547952683837	2616108
2616231	PL	first-class macros have types	2000	5.175935909184644	7.249463527746973	2616258
2616287	NLP	on scalable reconfigurable component models for high-performance computing	2015	6.218338509800378	7.309460251866166	2616314
2618294	PL	capturing hiproofs in hol light	2013	5.0267612781965925	5.8164490994723685	2618321
2618632	PL	a type-safe embedding of sql into java using the extensible compiler framework j%	2015	6.228781430688188	7.3265947281386685	2618659
2618916	Metrics	the unix kiss: a case study	2007	6.046944461520072	7.195394406513972	2618943
2619304	PL	programs are abstract data types	2001	5.334684809366691	7.005256747764107	2619331
2620582	NLP	conflict detection and resolution in a lexical analyzer generator	1991	5.315340428288449	6.220276262997596	2620609
2620753	Networks	a new data abstraction layer required for oodbms	1997	6.040821546281135	6.594011691766745	2620780
2620816	PL	visualizing action semantics	1995	5.634114587791044	7.160483709239345	2620843
2621389	Arch	some psychological evidence on how people debug computer programs	1975	6.053000937799358	6.463324446015265	2621416
2621681	PL	program analysis by formal transformation	1996	5.117416641685329	7.2114093136362065	2621708
2621731	PL	object-orientation in the utp	2006	4.784270606149975	7.311498583553767	2621758
2623290	AI	short cobol a practical tool to reduce tedious programming procedures	1978	5.5366640309987485	6.49367872077022	2623317
2623477	DB	towards constraint-informed information systems	2013	6.06441932463071	6.962432006240012	2623504
2623555	PL	a calculus of superimpositions for distributed systems	2002	4.66946976594129	7.137697437061329	2623582
2623643	PL	linear genetic programming	2007	5.494439578001398	6.474540998172665	2623670
2623726	Logic	structured implementation of symbolic execution: a first part in a program verifier	1975	5.617337583844514	6.068282859763988	2623753
2624786	PL	selection processes and their relation to automata	1973	4.700951248357688	6.244843696791401	2624813
2624907	Robotics	multiparadigm programming in mozart/oz : second international conference, moz 2004, charleroi, belgium, october 7-8, 2004 : revised selected and invited papers	2005	5.150668168527245	6.376475020096032	2624934
2625088	Security	using cqual for static analysis of authorization hook placement	2002	5.37407544683396	6.285811237203737	2625115
2625130	PL	weaving generic programming and traversal performance	2010	6.021273813061719	7.112503770644873	2625157
2625267	PL	a modular rewriting approach to language design, evolution and analysis	2009	4.98431226889184	7.384137709041447	2625294
2625304	PL	open pattern matching for c++	2013	5.032705877129686	7.10507923727518	2625331
2625360	Logic	arch-comp18 category report: continuous and hybrid systems with linear continuous dynamics	2017	4.997198574781224	6.138622479419258	2625387
2625629	SE	a general design method based on algebraic topology -- a divide and conquer method	2013	6.031884781997223	6.90755698573929	2625656
2625637	SE	using uml-f to enhance framework development: a case study in the local search heuristics domain	2001	4.503196749029509	5.961875129130792	2625664
2625828	PL	quantum programming languages	2006	4.569701681362084	6.186364013420395	2625855
2627710	PL	mode modules as representations of domains	1973	4.460403625303684	6.585703091295409	2627737
2627946	PL	mufp, a language for vlsi design	1984	4.885627816185722	6.862808676229713	2627973
2627959	PL	packrat parsing: simple, powerful, lazy, linear time	2006	4.451616533419041	6.702714683549143	2627986
2628040	PL	the york abstract machine	2008	5.558345918115618	7.159604394145481	2628067
2628225	PL	embedding goal-directed evaluation through transformation	2016	5.305400455373795	7.117491218643181	2628252
2628451	AI	refinement of rule sets with jojo	1993	4.882592377548721	5.574710141666284	2628478
2628574	SE	automatic generation of software test cases from formal specifications	1998	5.337003387002117	7.370750552530852	2628601
2629470	HCI	how to write an apl utility function	1997	5.744266670202192	6.966798058929143	2629497
2629559	PL	generic binding of object oriented programming languages to rdf(s)	2007	6.095304594583709	7.127618996969327	2629586
2629726	Arch	cvc verilog compiler - fast complex language compilers can be simple	2016	5.314304076523863	6.9738876284106155	2629753
2630034	NLP	on the use of extended grammars	1982	4.7532664338241535	6.366750956490389	2630061
2630139	PL	an implementation model for interaction nets.	2014	4.41867479062832	6.501623344672833	2630166
2630438	Robotics	fprolog: a language to integrate logic and functional programming for automated assembly	1986	5.103130884338033	6.643215649768656	2630465
2631341	PL	implementation of a special-purpose language using pascal implementation methodology	1979	6.091934474597489	6.345879625684887	2631368
2631605	PL	certified compilation of financial contracts	2018	5.983079488409313	7.360568893836298	2631632
2632486	PL	a case for make	1990	6.286866797444446	6.926902647529937	2632513
2633777	Robotics	symbolic computing package for mathematica for versatile manipulation of mathematical expressions	2014	5.6156187203556645	5.997589377752807	2633804
2633856	PL	a calculus of bounded capacities	2003	4.667425739129524	5.862716206117253	2633883
2634480	Arch	very fast lr parsing	1986	4.631177448927135	6.852270694661637	2634507
2634607	Theory	timed automata and timed languages challenges and open problems	2003	6.044466266728432	7.440113638613418	2634634
2635349	DB	first order predicates in a strongly typed database programming language: the dbpl experience.	1988	4.854968987266424	6.030227415464456	2635376
2635356	PL	adaptation-based programming in java	2011	5.577880001135032	7.225759096400032	2635383
2636529	Arch	the associative languageal-1	1972	4.850124988996996	5.90905819340267	2636556
2636815	PL	some practical methods for rapid combinator reduction	1984	4.638405554823836	6.760765424632138	2636842
2637600	SE	logic programming and software engineering - implications for software design	1996	4.907612780151414	6.590266971246742	2637627
2637664	PL	using domain specific language for modeling and simulation: scalation as a case study	2010	5.738983338695856	7.350718066747638	2637691
2637774	PL	build a tree - save a parse	1999	5.711380650778325	6.4925829766042655	2637801
2638013	PL	the shepard tone and higher-order multi-rate synchronous data-flow programming in sig	2015	4.88424858696743	6.269386853985214	2638040
2638413	PL	"""comments on the topic """"programming, and its implication on programming languages"""""""	1975	5.472933684438823	5.9555170822279155	2638440
2638811	EDA	flexible algorithms - selections from a course for beginners	2006	5.557710093696708	6.409490066746459	2638838
2639240	Logic	on preventing intrusions by process behavior monitoring	1999	5.815187290591508	6.320378759618724	2639267
2639365	SE	reusable specification modules for type analysis	2009	6.173915777163695	6.970782424941954	2639392
2639417	AI	c++'s destructors can be destructive	1991	4.549944454213533	6.619638523052991	2639444
2639532	Logic	dynamic compilation for functional programs	2009	5.713918606241126	6.116328315141947	2639559
2639572	Logic	the design and construction of a state machine system that handles nondeterminism	2004	5.387012462101534	5.878476747740589	2639599
2639795	PL	a syntax directed processor writing system	1968	5.509698747074983	6.571944618420707	2639822
2640857	Logic	an operational semantics for icon: implementation of a procedural goal-directed language	1993	5.624083894724972	6.752496690742572	2640884
2641372	AI	a partial evaluator, and its use as a programming tool	1976	4.820199140761095	7.215127201110711	2641399
2641591	PL	a guide to natural naming	1990	5.986906919003181	6.258560391967241	2641618
2641704	SE	combining data flow and control flow computing	1982	5.675015381678816	5.536747148311203	2641731
2641705	Theory	pl/i list processing	1967	6.024133637864977	5.962888925667473	2641732
2642383	Theory	an evaluation of the new fortran 90 standard relative to dsp algorithm implementations	1993	5.6661711766165235	6.534452744733249	2642410
2643589	PL	scoping rules on a platter: a framework for understanding and specifying name binding	2014	4.463848346676798	7.009285609164009	2643616
2643893	PL	a machine-independent debugger--revisited	1999	5.6134281448325165	7.134837359095128	2643920
2644175	SE	an example illustrating modularity, abstraction & information hiding using	1989	6.061928307097371	6.764497201488779	2644202
2644496	NLP	design patterns for parsing	2005	5.6150116319731875	6.432829954887481	2644523
2645330	Arch	machine-independent c optimizer	1985	6.086821488758905	6.663784183463168	2645357
2647028	Logic	mpl: a multiprecision matlab - like environment	2005	5.7861440715369525	6.688079864795853	2647055
2647058	PL	the metafront system: extensible parsing and transformation	2003	5.139390798446972	7.127427278034284	2647085
2647286	PL	an accidental translator from smalltalk to ansi c	1991	6.098382474140493	6.984689071535708	2647313
2647595	PL	a functional pattern system for object-oriented design	1999	5.687103576074454	6.02589338568352	2647622
2647714	PL	operational semantics of a focusing debugger	1995	4.411057889021463	7.311593082092545	2647741
2647779	AI	convention-based syntactic descriptions	2009	4.761387738258581	6.477950996025567	2647806
2648007	Embedded	applications of temporal logic to the specification of real-time systems	1988	5.135564607212543	5.86210572947814	2648034
2648126	PL	definition of open language	2001	5.754572917066505	6.396507251328187	2648153
2648777	PL	an architecture for making object-oriented systems available from prolog	2002	5.472330890327563	5.932417276330477	2648804
2648963	PL	a software engineering perspective on algorithmics	2001	4.5125936258681705	5.7660350483930625	2648990
2649148	DB	the icon programming language a new approach to high-level string processing	1979	6.036719848020043	5.850287534137138	2649175
2650787	PL	crl/pascal: a pascal-oriented cross reference language and its applications	1993	5.9154424937621295	5.854198927426213	2650814
2651888	EDA	protocol design using lotos: a critical synthesis of a standardization experience	1992	6.145181713271932	5.8033947420031975	2651915
2652171	SE	an architecture for context-sensitive formatting	2005	5.936710218654796	6.74921922084025	2652198
2652240	NLP	semtag: a platform for specifying tree adjoining grammars and performing tag-based semantic construction	2007	5.796308564729598	6.496155421032452	2652267
2652452	PL	on the naturalness of proofs	2018	4.482638019989958	7.339672130061317	2652479
2652676	PL	high performance continuation passing style prolog-to-c mapping	1994	5.169991486191888	6.309619536813943	2652703
2653609	Logic	resource aware ml	2012	5.864517500154519	6.693593602346172	2653636
2653683	PL	data abstraction, views and updates in rigel	1979	5.6974883982308375	6.438033991059749	2653710
2654452	PL	aspect-oriented compilers	1999	5.079980281187149	7.249255525367558	2654479
2655947	SE	software reuse from an external memory: the cognitve issues of support tools	1998	5.6505354876543565	6.315469139056687	2655974
2656046	PL	regular expression search algorithm	1968	4.6168285876675546	6.606263962648687	2656073
2656891	EDA	an advanced simulation approach for parallel devs with ports	2010	5.894947961611567	5.693606676522653	2656918
2657813	PL	eql - the query language you never heard of	1998	6.283170771754053	6.106875241467809	2657840
2658044	PL	a technique for handling macro instructions	1959	5.194393909910762	6.542520601749383	2658071
2658184	PL	vlib: infinite virtual libraries for lotos	1993	4.737823311252178	6.940083150389396	2658211
2658320	PL	super and inner: together at last!	2004	4.6083614680151594	7.368586167374165	2658347
2658406	PL	an overview of arc sasl	1984	4.48105144789036	6.61605213271114	2658433
2658700	Logic	component library of problem models for almm solver	2017	4.647203114550679	5.89619386931422	2658727
2659107	PL	c++ versus lisp: a case study	1988	5.7797944317047305	6.108150092172762	2659134
2659466	NLP	an interactive learning algorithm for acquisition of concepts represented as cfl	1998	5.138104219075179	6.18664327107136	2659493
2659796	EDA	compositional design and verification of communication protocols, using labelled petri nets	1990	5.497263675048155	5.881630641219154	2659823
2659861	PL	concurrent programming concepts	1973	5.0354036562190645	6.962534877209013	2659888
2660393	PL	foundations of programming languages	2014	5.6810755745103165	6.8158126763471865	2660420
2660562	PL	towards a wide spectrum language to support program specification and program development	1978	4.5912721689258245	7.1546594604727165	2660589
2662044	PL	extending moby with inheritance-based subtyping	2000	4.774395162858772	6.960399805584482	2662071
2662145	ML	software for an air pollution measuring system: an application of modula	1985	6.104428750060669	6.169620997451072	2662172
2662173	Embedded	toward a real-time dataflow language	1986	5.655043547962799	6.042068438277866	2662200
2662228	PL	control of sequence and parallelism in modular programs	1968	4.953330026454685	6.566931704106108	2662255
2662790	Arch	strum: structured microprogram development system for correct firmware	1976	5.865093212500618	7.147687965074941	2662817
2663206	EDA	algebra of concurrent design	2012	4.822755406997755	6.7613674921752525	2663233
2663476	Theory	"""a csp solution to the """"trains"""" problem"""	1983	5.086072859028484	6.512865158657805	2663503
2663987	AI	advances in rete pattern matching	1986	4.430422393261555	6.4029703849087465	2664014
2664151	PL	relations, constraints and abstractions: using the tools of logic programming in the security industry	2009	5.441496567751782	7.245539599347242	2664178
2664458	PL	a constructive approach to the design of algorithms and their data structures	1983	5.758288963538795	6.0691880539559016	2664485
2665487	Theory	distributed decision problems: the locality angle	2011	4.877867766757602	6.157370386125292	2665514
2665677	PL	data leakage analysis of the hibernate query language on a propositional formulae domain	2016	4.633692259583242	7.2096146638124265	2665704
2666608	AI	evolving program trees with limited scope variable declarations	2012	4.953381879608839	7.113261826302849	2666635
2666686	PL	a straightforward denotational semantics for non-determinant data flow programs	1978	4.663154244053278	7.0141539476602	2666713
2666742	DB	algorithm for analyzing logical statements to produce a truth function table	1958	4.632013697140688	6.282877301950848	2666769
2666767	PL	a critique of ansi sql isolation levels	1995	4.9357251734099785	6.075097552747108	2666794
2667378	Theory	the contour model as an instructional tool in elementary computer science courses	1987	5.529967096091545	6.464665096508641	2667405
2668016	PL	superpascal - a publication language for parallel scientific computing	1994	5.261486907522133	6.930410405313312	2668043
2668237	PL	object-oriented programming in c++—a case study	1987	5.282493864491792	6.962956373370693	2668264
2669136	Comp.	specification of stored data structures and desired output results in diam ii with foral	1975	5.113745602583641	6.407672468744165	2669163
2669522	Theory	analysis and optimization of set expressions	1982	4.65828879515241	6.706898699488122	2669549
2669650	DB	on additivity in transformation languages	2017	4.7014020518450454	7.025876432657249	2669677
2669974	Arch	a use of macros in translation of symbolic assembly language of one computer to another	1965	5.289083321673151	6.839665173692413	2670001
2670663	PL	inference of inheritance relationships from prolog programs: a system developed with prologiii	1992	6.272512146080023	7.153901222946116	2670690
2670893	Theory	transferable fortran subroutine for rapid extended sorting	1970	4.680395723943769	6.556233929527714	2670920
2671471	PL	multiple downcasting techniques	1999	5.603765533810177	7.148386019839936	2671498
2671771	Logic	a generic model for perception-action systems. analysis of a knowledge-based prototype	1999	5.981668522667795	5.701029442923999	2671798
2672293	PL	tutorial on online partial evaluation	2011	5.574645291629101	7.340111028748686	2672320
2672608	PL	the ctalk programming language: a strategic evolution of apl	1992	5.3340525454371965	6.583970467811963	2672635
2673601	PL	polytypic data conversion programs	2002	4.899804515394648	6.398959931018423	2673628
2674176	Theory	the structure of “data structures”	1981	4.577280203064381	6.396908649055102	2674203
2674584	PL	programming languages: toward a general processor for programming languages	1968	5.320505397396944	6.695561250117486	2674611
2674914	ML	entcaf and entcre: evaluation of normalized taylor coefficients of an analytic function [c5] (algorithm 413)	1971	4.853414855889262	5.934387721298453	2674941
2675012	PL	view of computer algebra data from coq	2011	4.902923016878429	7.047266948595292	2675039
2675441	AI	evolving categories: consistent framework for representation of data and algorithms	2004	5.073832287932851	6.444506150703759	2675468
2676560	Logic	hytech: the cornell hybrid technology tool	1994	4.979465626577603	5.939751319171804	2676587
2677459	AI	new programming languages for artificial intelligence research	1974	4.676750997008892	6.2362119496205475	2677486
2677593	PL	meld: a modest extensible lisp dialect	1980	5.418359559562087	7.128178146822094	2677620
2677616	Robotics	super iterator a design pattern for algorithm and data structure collections	2007	5.1523363522442445	7.126641332796089	2677643
2677636	HPC	multi-language, multi-target compiler development: evolution of the gardens point compiler project	1997	5.991010296876488	6.719610966704768	2677663
2679327	PL	windows assembly language and systems programming - object oriented and low-level systems programming in assembly language for windows 3.x	1993	6.193982306788335	6.395971624869251	2679354
2679656	Logic	formal verification of a message-passing protocol with model checking	1995	5.231962879761463	6.69253590400249	2679683
2680025	SE	on executable specifications, validation, and testing of mac-level protocols	1989	6.017252889725474	5.630422342838607	2680052
2680140	NLP	the xdg grammar development kit	2004	5.347453464073272	6.43490939725402	2680167
2680531	PL	the algorithm description language aldes (report)	1976	5.253238812205408	6.957087441380698	2680558
2680850	PL	design of instruction set architectures for support of high-level languages	1984	4.6343362407793	6.6305053648611905	2680877
2681214	HCI	extending aura with csound opcodes	2014	5.724783251704752	7.222011777159818	2681241
2681894	Logic	modularity and temporal reasoning: a logic programming approach	2007	4.604128568329954	6.200832154566356	2681921
2682226	SE	erlang code evolution control (use cases)	2018	5.6869675160416495	5.8239228660606654	2682253
2682728	Arch	the casino and the ooda loop: why our protocols always eventually fail	2012	4.9208678937053545	5.762589529132018	2682755
2682771	PL	the method of attributes for data flow analysis	1978	5.341702025805941	6.2178469759593655	2682798
2683135	DB	variable handling in time-based xml declarative languages	2009	6.043896055565966	7.214665653591213	2683162
2683232	Logic	pattern-based verification for trees	2007	4.670574055064591	6.3139299761457846	2683259
2684180	PL	framework design using function generalization: a binary tree traversal case study	2006	4.893422216389442	6.924416148323518	2684207
2685228	Embedded	debugging with evaluation abstractions	2010	5.453045758215515	6.75961135258869	2685255
2685279	PL	functional transformation systems.	2000	5.554541613339051	6.795417767836139	2685306
2685515	PL	bialgebra views: a way for polytypic programming to cohabit with data abstraction	2008	4.453565143393163	7.0551288771444645	2685542
2685589	PL	on the semantics of loop transformation languages	2018	5.487022495510612	7.305565160804184	2685616
2685893	SE	a technique for prototyping directly from a specification	1985	5.3395144221079205	7.0295233768314285	2685920
2686151	EDA	systemc kernel extensions for heterogeneous system modeling - a framework for multi-moc modeling and simulation	2004	6.0701406258421065	6.002454182488699	2686178
2686597	SE	istate: a statechart translator	2001	5.237396804775449	7.412855865048076	2686624
2686940	HPC	maple v by example	1994	5.607328475525675	5.58412448418028	2686967
2687277	NLP	automatic translation of sdl specifications to implementation based on syntactic transformation	1989	6.05032363642653	6.382567163987316	2687304
2687858	Theory	template metaprogramming, partial evaluation and computational complexity classes	2010	4.667327477146554	5.5419141130275165	2687885
2688632	HPC	a mainframe implementation of concurrent pascal	1982	6.197710690685724	6.333923667775098	2688659
2688645	Robotics	on the way to high-level programming for resource-limited embedded systems with golog	2010	5.940854027259598	6.8314538322669875	2688672
2688747	PL	object-oriented programming	1996	5.337963586625309	6.7715179182484855	2688774
2689071	AI	recursive functions of symbolic expressions and their computation by machine	1959	4.514429302752825	6.277350799222695	2689098
2689668	PL	an extension of standard ml modules with subtyping and inheritance	1991	4.694165530837665	7.2619034121269275	2689695
2690612	Logic	finding the correctness proof of a concurrent program	1978	4.838985914471696	5.912863653662551	2690639
2690936	SE	how understanding and restructuring differ from compiling - a rewriting perspective	2003	4.510460194725129	6.775376115052284	2690963
2691388	PL	an object-oriented model for asn.1	1988	5.304166852168733	6.614622025749962	2691415
2691761	Graphics	use of decision tables in computer programming	1965	5.744715940681976	5.9828575737309455	2691788
2692283	PL	managing state	2012	4.642404055511894	7.031709525651008	2692310
2692522	PL	facilitating modular property-preserving extensions of programming languages	1998	5.909485546040598	7.356234066309364	2692549
2692979	PL	sepia - a bases for prolog extensions	1992	5.662091734665669	7.159245725914952	2693006
2693526	NLP	a generic approach to parallel chart parsing with an application to lingo	2001	5.392667740874534	6.598203988342473	2693553
2694516	Robotics	a microprocessor-based multilingual terminal for a computerized information handling system	1980	5.955177523879643	6.2650735222740055	2694543
2694678	PL	generic geometric programming in the computational geometry algorithms library	1999	5.218081120766406	6.726744569723969	2694705
2694921	Robotics	this is not a model: on development of a common terminology for modeling and programming	2018	5.920496239135685	7.125742016433952	2694948
2694929	PL	a dynamic (fortran) programming system	1976	6.165415877468723	6.451727049179207	2694956
2695191	DB	indexing to efficiently support fussy queries on range specifications	1996	5.689975903008679	6.522040999058957	2695218
2695359	SE	software development is program transformation	2010	6.118484328207691	6.942304877583681	2695386
2695413	DB	declarative xml schema validation with swi-prolog - system description	2017	5.427384071516534	6.855697303832681	2695440
2695449	SE	automatic code stylizing	2007	5.111648324751298	6.379969408623121	2695476
2695461	PL	alien: a programming environment generator for personal computers	1988	6.0651950361521125	6.820616094823568	2695488
2695955	Theory	modeling and programming asynchronous automata networks: the moca approach	2010	5.195721179035175	6.0618634813177135	2695982
2696068	AI	a system for form-feature-based interpretation of technical drawings	1995	6.022847238279004	6.304077682807687	2696095
2696562	PL	a knowledge-based problem-specific program generator	1987	5.535898910384108	5.641611127493817	2696589
2696644	DB	implementation of a compiler for a semantic data model: experiences with taxis	1987	5.967283530400971	6.450611792370705	2696671
2696847	Arch	experience with porting techniques on a cobol 74 compiler	1982	5.643870688457729	6.942538226475442	2696874
2696924	HPC	serial compilation and the 1401 fortran compiler	1965	5.4527624710351965	6.744220500710758	2696951
2698164	Logic	specification and validation of protocols by temporal logic and nets	1983	5.025959493125773	5.5559446920396605	2698191
2698579	ML	a graphical workstation and programming environment for data-driven computation	1983	5.7747036045402345	7.267859954195219	2698606
2700040	PL	the spoofax name binding language	2012	5.738789708256018	6.8745497020601665	2700067
2700146	HCI	a shallow algorithm for correcting nesting errors and other well-formedness violations in xml-like input	2004	4.573227841855228	6.68868095517033	2700173
2700514	PL	"""dynamic adts: a """"don't ask, don't tell"""" policy for data abstraction"""	2007	5.703721824569372	7.208361138394194	2700541
2700874	PL	the history of fortran i, ii and iii	1978	5.036656461443156	6.5837770775483815	2700901
2700893	PL	didagraph: software for teaching graph theory algorithms	1998	5.3988731589662375	5.624561069347847	2700920
2700958	PL	an overview of the summer programming language	1980	5.357941291869862	6.219820637029885	2700985
2701236	Logic	interactive theorem proving	2016	4.491153998825716	5.775935873332765	2701263
2701425	SE	facilitating formal specification acquisition by using recursive functions on context-free languages	2006	5.901568930698605	7.395676225870456	2701452
2701859	AI	bringing skeletons out of the closet: a pragmatic manifesto for skeletal parallel programming	2004	6.223954783001782	6.5676282918455495	2701886
2703054	Graphics	"""remark on """"fast floating-point processing in common lisp"""""""	1996	5.379519224848916	6.397378531219663	2703081
2703149	Theory	the weyl computer algebra substrate	1993	4.923508501116462	6.287848475553094	2703176
2703156	HPC	scrolling partially ordered event displays	2005	6.113570613512541	5.796345541824587	2703183
2703846	PL	knowledge-based programming using abstract data types	1983	5.566893961354896	6.677921566166973	2703873
2703907	PL	correctness, completeness and termination of pattern-based model-to-model transformation	2009	5.0620496228113065	7.169365667528597	2703934
2704159	AI	the use of overloading in java programs	2010	5.080591690374042	7.1145004410356565	2704186
2705975	PL	real inferno	1996	6.26603239349812	6.493638690493031	2706002
2706136	Logic	integration of automated and interactive theorem proving in ilp	1997	4.430076095290584	6.776226499074903	2706163
2706823	SE	macros without tears	1979	5.3919319530349314	6.731860463421053	2706850
2706982	SE	recovering abstract data types and object instances from a conventional procedural language	1995	5.944300485189017	7.140883772490431	2707009
2707046	PL	reasoning about program transformations: imperative programming and flow of data by jean-francois collard, springer-verlag, 2003	2004	4.7851465221144105	5.719435064822951	2707073
2707538	PL	the formal definition of semantics by string automata	1975	4.543625720505019	7.297466644922336	2707565
2708155	NLP	mixed language programming	1984	5.626574956106203	6.495478840626738	2708182
2708300	PL	the zephyr abstract syntax description language	1997	5.5890058027656595	6.819463507749328	2708327
2708320	PL	how to write a long formula	1994	4.980918357921669	5.604245029342023	2708347
2708628	PL	program specification by module trees	1981	5.238186242189556	6.965961153002037	2708655
2709220	PL	a proposal for input-output conventions in algol 60	1964	5.230237788555506	6.558962084393535	2709247
2709237	DB	xqconverter: a system for xml query analysis	2011	5.8027774665618495	6.27714553967301	2709264
2709517	PL	type-directed diffing of structured data	2017	5.384340780052633	7.253949704222064	2709544
2710665	PL	arithmetic with measurements on dynamically-typed object-oriented languages	2005	5.307987767548643	7.27692275513113	2710692
2711349	PL	supporting procedural constructs in existing sql compilers	1996	5.902652945821737	5.940274224245293	2711376
2711881	DB	special run-time organization techniques for algol 68	1976	5.385453165335394	6.5084391118408975	2711908
2712055	DB	the cobol sorting verb	1963	5.253757438357947	6.335486741789085	2712082
2712123	NLP	experience with the abstract syntax notation one and the basic encoding rules	1991	5.809447172441004	6.50311229470716	2712150
2712680	PL	abstraction mechanisms in clu	1977	4.612654384985156	7.350720603039548	2712707
2713308	SE	creating a portable programming language using open source software	2004	5.4788407213012125	7.029437224500162	2713335
2715290	PL	no ifs, ands, or buts: uncovering the simplicity of conditionals	2007	4.519224843587182	6.310082713153307	2715317
2715728	PL	how to best return the value of a function	1989	4.4380935811948286	6.046831166101978	2715755
2716411	PL	more ambiguities and insecurities in modula-2	1987	5.826508194643343	6.555911311071362	2716438
2716947	PL	an object-oriented ll(1) parser generator	2000	5.9990731130389285	6.898426967131321	2716974
2716949	Logic	the lean theorem prover (system description)	2015	5.3615629081516385	6.822734691227693	2716976
2717117	PL	refactoring and aggregation	1993	6.097491822709468	7.1196693487737175	2717144
2717746	SE	the power of notation: modeling pointer operations	2005	4.455384341534455	6.6796234914404655	2717773
2718610	DB	implementing osi communication protocols - a systematic approach to derive sdl-implementation specifications from global protocol specifications	1986	6.064553319450178	5.697756579927781	2718637
2718924	DB	processing xml for domain specific languages	2008	5.808789897919498	6.575254155859453	2718951
2719612	PL	drscheme: a pedagogic programming environment for scheme	1997	5.2742115363123645	6.572324852744782	2719639
2719616	NLP	bites instead of first for parsing expression grammar	2011	4.547673386860302	6.0994154185749405	2719643
2719641	AI	guiding unconstrained genetic improvement	2016	5.445008197377288	6.1092929646029175	2719668
2719838	PL	on the use of object-oriented paradigm in a distributed problem solver	1989	6.239964582468282	5.938886195404185	2719865
2719931	PL	extensible pattern matching in snobol4	1975	5.663390220008581	6.678772015788717	2719958
2720360	PL	txl: a rapid prototyping system for programming language dialects	1988	5.939150231366567	7.143511309373994	2720387
2720882	DB	integrated system intercomp and computer language for physicists	1991	5.7749772631794505	5.693513736594849	2720909
2721995	Theory	a sequential circuit for algebraic statement translation	1964	4.8936542628125	6.598667182064004	2722022
2723201	NLP	a study in generating readable modula-2 from prolog	1997	5.359059551593088	5.725148602436743	2723228
2724069	NLP	on specialised compilation of parsing rules in unification grammars	2001	4.565074670341277	5.760529872512152	2724096
2724271	PL	attribute grammars in the functional style	1998	4.804412109505868	7.059435959732951	2724298
2724488	SE	firmware versus software verification	1978	5.851578504774319	6.851775925107201	2724515
2724513	PL	a maximum-flow approach to anomaly isolation in unification-based incremental type inference	1986	6.082756793063707	7.4070301536230865	2724540
2724680	NLP	proving correctness of translation from moded flat ghc to pi-calculus	1995	4.5949999630700615	5.6301286459922615	2724707
2725372	PL	on the implementation of ambit, a language for symbol manipulation	1966	4.6523595880706115	5.972616107607116	2725399
2725695	PL	modeling object-oriented program execution	1994	5.602028879708714	5.940702306139905	2725722
2726295	SE	extended application of ada to cover ecbs with o4s	1994	6.265977080519463	6.68426369410597	2726322
2726449	PL	separate compilation of structured documents	1993	6.103460103458548	6.359426511536584	2726476
2726481	Networks	verification of stack manipulation in the scip processor	2010	4.411068341844409	7.0093894990361125	2726508
2726668	Logic	a survey on syntactic error recovery and repair	1984	4.708663825844012	6.734825643986592	2726695
2727328	Robotics	defining and composing big state machines	2015	6.179999673929582	6.573217838817782	2727355
2727361	SE	a framework for the principled debugging of prolog programs: how to debug non-terminating programs	1990	4.862038041912966	7.179523597561453	2727388
2727612	PL	lambdadl: syntax and semantics (preliminary report)	2016	4.487041783967966	6.480514555073182	2727639
2728953	PL	strategic directions in research on programming languages	1996	5.650251231363707	6.6475786989171075	2728980
2730007	Crypto	a sentence generator for a compiler for pt, a pascal subset	1983	4.724602220370029	6.5846431826547525	2730034
2731824	PL	smgn - some historical remarks	2001	5.5483736492784725	6.744512844521805	2731851
2731870	PL	certification of algorithm 52: a set of test matrices	1961	4.7782986560704455	6.691397027239412	2731897
2732923	PL	simulation with c	1984	6.07935316628284	6.494279058555804	2732950
2733489	PL	implementing a scaler c compiler on the cyber 205	1984	5.870905881098148	6.5195624627427735	2733516
2734016	Robotics	exploiting logic programming in robot applications	1993	5.140525685481193	6.3170549852092375	2734043
2734053	Theory	practical considerations of global and local variables	1985	4.493602350884864	6.2791568098959765	2734080
2734615	Theory	panel: use of formal methods in the analysis of cryptographic protocols	1992	5.665931613616772	5.683503725689478	2734642
2734881	PL	programming languages: formal development of interpreters and compilers	1977	5.693826659592715	5.966912051137397	2734908
2735293	PL	overview of the mathemagix type system	2012	4.840405458092925	6.485845006206392	2735320
2736063	PL	constructive abstract data types (cad)	1980	5.898958549395253	6.3405725666145445	2736090
2736547	PL	pluto: an object-oriented logic programming language	2001	6.199387966051661	7.354322596475551	2736574
2738183	PL	a transformation-based optimiser for haskell	1998	4.719135899697719	6.739170816767548	2738210
2738570	Logic	some thoughts on runtime verification	2016	5.854633611532138	6.064051053797869	2738597
2738624	AI	a survey of intelligent debugging	1998	5.952950930090821	6.250827469251172	2738651
2739292	AI	filtering sql via the principles of pandemonium	1997	5.310013598348309	6.8888538505792765	2739319
2739332	PL	the sketching approach to program synthesis	2009	6.1006497104029584	7.000011004970277	2739359
2739363	NLP	application development with the fnc-2 attribute grammar system	1990	6.1973870543948175	6.705296649092233	2739390
2739832	AI	testing of autonomous agents described as utility state machines	2004	6.022574975878227	6.2985131690360365	2739859
2740161	NLP	a new parsing method for non-lr(1) grammars	1992	5.0484473594253005	6.932716231919287	2740188
2741291	PL	functional testing and design abstractions	1980	5.146863658653382	6.4352553682700835	2741318
2741761	SE	error handling using modula-2	1987	6.150031419295956	6.846845638727607	2741788
2742253	PL	a language for specifying recursive traversals of object structures	1999	5.7283064773695225	7.016906560600147	2742280
2743744	HCI	some simple ways to construct and to use formulas mechanically	1991	4.719704287007913	6.414796102747169	2743771
2744479	OS	csmagic improves program generation with interactive cobol	1980	5.884292790377011	6.514930895984057	2744506
2745010	PL	a technique for counting ones in a binary computer	1960	5.445932247527561	5.686714067975295	2745037
2745057	PL	techniques and advantages of using the formal compiler writing system fsl to implement a formula algol compiler	1966	4.659442957383071	6.640733129422605	2745084
2745259	PL	exploring parafunctional programming: separating the what from the how	1988	5.4247649281253825	7.16077957309488	2745286
2745522	PL	interactive tools for computation theory	2002	4.619176202474399	6.5797666662918	2745549
2745942	Robotics	implementation of an asymmetric relay autotuner in a sequential control language	2015	6.0266014715420715	6.3570065918945895	2745969
2746125	Logic	local theory extensions, hierarchical reasoning and applications to verification	2007	4.694951392138432	6.315089793218157	2746152
2746209	PL	a parser-generating system for constructing compressed compilers	1973	4.780563596201638	6.7187821684814635	2746236
2747676	PL	experience with an uncommon lisp	1986	5.802910366661134	6.6391577200944605	2747703
2748014	PL	continuations and coroutines	1984	4.431967575115759	7.175477568914792	2748041
2749121	Web+IR	integrating the structured analysis and design models: a category-theoretic approach	1987	5.803877369957965	6.772804491249957	2749148
2749556	PL	the essence of the visitor pattern	1998	4.834074188336173	6.912649994687857	2749583
2749810	Vision	specifying the xpress transfer protocol using estelle and valira	1990	6.0542750558428216	5.67300186979175	2749837
2749811	PL	programming factors - language features that help explain programming complexity	1978	5.751073044360973	6.392391634317268	2749838
2752808	Logic	modeling of data-processing software for generating and reusing their programs	1988	5.6813216579545225	5.844800188715412	2752835
2752892	PL	respectful type converters	2000	6.123136097751784	6.974017997971576	2752919
2753527	SE	aterms for manipulation and exchange of structured data: it's all about sharing	2007	5.255189035682999	6.980972353609807	2753554
2754172	PL	pgf: a portable run-time format for type-theoretical grammars	2010	5.1397802376910064	6.650493382872032	2754199
2754784	NLP	an extendible regular expression compiler for finite-state approaches in natural language processing	1999	4.501347904187282	6.2358517598730945	2754811
2756180	PL	polyd: a flexible dispatching framework	2005	6.002012499839642	7.377959932702089	2756207
2756267	HCI	symsac'86 abstracts	1986	6.148155163874298	5.990739878911853	2756294
2757343	OS	a constructive criticism of the c/c++ proposal for complex arithmetic	2005	5.991996091257267	6.186453478271472	2757370
2757976	AI	is strategic programming a viable paradigm?	2001	5.7962733663659725	6.431928912983443	2758003
2758798	PL	data model refinement, generic profiling, and functional programming	2001	5.421644596822007	5.685808485789963	2758825
2758866	Crypto	functional programming and security	2012	6.105766418054565	6.509409796915196	2758893
2759042	AI	functional formalisms for system description: current research topics	1986	5.670467966445002	6.100514651684782	2759069
2759917	SE	on constructing a tool to verify programs for processors built in machines	1998	6.120571528680685	6.900633020033548	2759944
2760503	PL	type-safe linkage for variables and functions	1991	5.350836803886546	7.440263892606878	2760530
2760658	Logic	a framework for developing embeddable customized logics	2001	4.975786693084625	6.6379152576039635	2760685
2761167	PL	multi-paradigm declarative languages	2007	4.859354885328927	6.664595648500048	2761194
2762192	AI	apl graphics and the associative machine	1987	6.01312237084244	5.665028834523637	2762219
2762838	PL	giving haskell a promotion	2012	5.002193721146269	7.2369056858171215	2762865
2763249	DB	analyzing and formalizing dependencies in generalized transaction structures	1998	4.452679167972084	5.8021810465392125	2763276
2764593	PL	theoretical results in compiler design and implementation (tutorial session)	1976	5.144579541926229	6.616072360372758	2764620
2764772	NLP	a functional language for the specification of complex tree transformations	1988	4.403569433540547	7.076935161738293	2764799
2766466	Robotics	an expert system on numerical control automatic programming	1991	5.930064212427236	5.7728772103219415	2766493
2766478	PL	profiling optimised haskell : causal analysis and implementation	2014	5.424491854526472	7.244670582198916	2766505
2766817	PL	simplicitly: foundations and applications of implicit function types	2017	4.478888577158589	7.353269970605634	2766844
2767934	Arch	ms-dos prolog implementations revisited	1988	6.209985206261217	6.106829612162862	2767961
2768102	AI	a model for capturing and replaying proof strategies	2014	5.383792573846333	6.459029525707378	2768129
2768456	Arch	execution architecture: the deltran experiment	1983	5.486560442219296	6.742075206453059	2768483
2768586	Logic	tlisp -- a transportable lisp implemented in p-code	1979	5.55981034926475	5.544498286863303	2768613
2768680	HPC	an introduction to a formal theory of dependence analysis	1988	5.236854570216857	6.694695197287376	2768707
2768840	SE	tell less, say more: the power of implicitness	1998	4.937780262034397	6.4480226211594935	2768867
2769002	Logic	applying timed automata to model checking of security protocols	2012	5.398315543388095	6.668698019413852	2769029
2769350	SE	rigor of tp in educational engineering software.	2016	5.4658572924154605	6.649936043663533	2769377
2769506	Robotics	programming languages and systems	1999	6.091351937565638	6.544668745250722	2769533
2769931	PL	interactive and modular optimization with interpol	2000	5.957401927620318	5.967239705821007	2769958
2770412	DB	a knowledge repository for indefinite integration based on transformation rules	2009	4.444003327883834	6.199096640657474	2770439
2770728	PL	an expression analysis package for reduce	1982	6.237606500043307	5.951447664486621	2770755
2770976	Theory	an extension to pascal for modular programming and a proposal of a conceptionally machine independent linker	1982	5.548106938748739	5.9978893485474645	2771003
2771626	PL	preparing for c++0x	2008	6.255000347824598	6.1334470822591625	2771653
2771699	SE	an empirical study of the lss specification toolkit in use	1996	5.205919712671048	6.769228094383119	2771726
2772243	Comp.	reusable components for lightweight mechanisation of programming languages	2013	5.857024404092995	7.380459259802379	2772270
2773058	SE	a study of order transformations of hierarchical structures in ims data base	1974	6.19594707307759	6.296467204921672	2773085
2773323	AI	implementing a wall-in building placement in starcraft with declarative programming	2013	6.187564861091484	6.307164544364332	2773350
2773995	PL	mixin' up the ml module system	2008	5.5372040307052615	7.254853761828909	2774022
2774147	EDA	"""dataflow, flowcharts, and """"lucid""""-style programming in logic"""	1984	5.6150328844979285	5.713737634952487	2774174
2774226	HPC	making java™ math libraries by translating fortran	1997	5.673744290455423	6.721629439764639	2774253
2775207	PL	annotated data types for addressed token passing networks	2001	5.314774205585175	6.414013921584253	2775234
2776687	SE	a few remarks on putting formal specifications to productive use	1981	6.196943511670022	5.6743675317268485	2776714
2777078	PL	an open challenge problem repository for systems supporting binders	2015	5.858853199733042	6.3985585376303975	2777105
2777666	HPC	the active element machine	2012	5.527108882128101	6.070287434644699	2777693
2777909	PL	data types à la carte	2008	4.830762901395262	6.46793547610201	2777936
2777937	PL	c language compiling characteristics and software application development	2013	6.277028200765262	6.684763982761159	2777964
2778203	EDA	input output timing in information systems	1983	6.0983084027232035	5.775091969279338	2778230
2778281	Arch	a microprogrammed implementation of an architecture simulation language	1977	6.072812570008388	6.341424781776551	2778308
2778337	Networks	simulation and control of reactive systems	1997	6.222889374323927	6.216857973233213	2778364
2778375	AI	fast fuzzy inference in octave	2013	5.034293034253733	6.070710576324147	2778402
2778622	PL	a simple technique to motivate structured programming	1988	4.706709087932033	6.280728404377411	2778649
2779170	Logic	conservative multigranularity locking for an obiect-oriented persistent language via abstract interpretation.	1994	4.919629161011478	5.66252044106478	2779197
2780283	PL	an object-oriented specification and its generation for compiler	1992	5.677329249770527	6.709936986011423	2780310
2780358	PL	haskell 98: basic input/output	2003	5.2088574318426994	6.5394150173038135	2780385
2780501	PL	one parser to rule them all	2015	5.198886024483993	7.32522481172405	2780528
2780566	PL	some improvements on utah standard lisp	1986	5.381826317089544	6.7523251441196885	2780593
2780623	PL	partial recompilation	1971	4.958407328327748	7.163204578103214	2780650
2780655	Logic	temporal logic model checking (abstract)	1997	4.905742936288752	5.836803630179523	2780682
2780788	AI	dynamic subsumption architecture for programming intelligent agents	1998	6.086906304740917	6.496881063767262	2780815
2781424	PL	burg, iburg, wburg, gburg: so many trees to rewrite, so little time	2002	5.6821141441097245	6.566756760839291	2781451
2781627	AI	an overview on operational semantics in membrane computing	2011	4.452599774710822	5.806139990748209	2781654
2781780	Graphics	approaching a formal framework for graphics software standards	1984	4.846063690443813	7.138909911585045	2781807
2782491	SE	the t experiments: errors in scientific software	1996	5.046440157862792	7.016733162509793	2782518
2783197	Logic	invariants on demand	2005	4.456191922879908	7.370720410589372	2783224
2783393	SE	graphseq: a graph matching tool for the extraction of mobility patterns	2010	5.6928790830456615	5.872268597572387	2783420
2783522	HCI	visual languages for the design and development of structured objects	1997	5.816824041438777	7.23943331077486	2783549
2783611	AI	parallel processing in computational linguistics	1988	4.769145940480037	5.886296240122775	2783638
2783924	PL	balm: an extendable list-processing language	1970	5.462014395809323	6.50393758777671	2783951
2784407	NLP	comparative efficiency of general and residual parsers	1990	4.6933582663114635	6.367728213563794	2784434
2784589	HCI	groebner bases for everyone with cocoa-5 and cocoalib	2016	6.249030898620687	6.091642603382055	2784616
2784614	HPC	a formal approach to fault tolerance in parallel systems	2004	5.965865544533592	5.564002424161829	2784641
2785273	NLP	higher­order functions and structured datatypes	2012	4.712845293932276	6.4860128062120355	2785300
2785454	PL	algol 60 confidential	1961	4.567788387447849	6.524588698005128	2785481
2786304	PL	compiler construction	2009	5.04357679923598	6.557595767572572	2786331
2786617	Arch	costing microprocessor software	1979	6.040640249919069	6.363485282633662	2786644
2786843	PL	the xml typechecking problem	2002	5.3816360603158895	6.876216141893741	2786870
2787120	PL	stack-based genetic programming	1994	4.759732039480951	6.808697506624007	2787147
2787465	PL	delivering binary object modication tools for program analysis and optimization	1996	5.926485750207613	7.170631546453447	2787492
2787866	Robotics	avoiding forgetfulness: structured english specifications for high-level robot control with implicit memory	2012	5.671641352877755	7.279932635631581	2787893
2788826	SE	an experimental cobol restructuring system	1983	5.937621805323185	6.440625090041425	2788853
2789233	Logic	dynamic labelling of bdd and zbdd for efficient non-coherent fault tree analysis	2015	4.9700422738841965	5.715387970205422	2789260
2789478	NLP	a parallel parsing system for natural language analysis	1987	4.396221752540338	6.359454092154534	2789505
2790201	PL	meta-languages and semantics for equation-based modeling and simulation	2010	5.538565069260193	7.341048551496942	2790228
2791312	PL	executing continuation semantics: a comparison	1993	5.0744891312072555	7.10930166691729	2791339
2792823	PL	research in programming languages for composability, safety, and performance	1996	5.802607317176242	5.779270904455353	2792850
2793330	Logic	towards a compositional approach to the design and verification of distributed systems	1999	5.529623240890503	5.640031432902705	2793357
2793930	PL	an extension to the subtype relationship in c++ implemented with template metaprogramming	2003	5.8008235896160745	7.231633746980177	2793957
2794616	Theory	clp-the cornell list processor	1965	5.799454573942684	5.932428790502338	2794643
2795196	HCI	the definition of comments in programming languages	1974	5.2514749686637145	6.105135463281035	2795223
2795445	PL	graceful dialects	2014	5.3596032609702835	7.392669258871982	2795472
2795674	PL	inheritance, generics and binary methods in java	2003	4.56538918674684	6.972241352948894	2795701
2795850	PL	classes versus prototypes: some philosophical and historical observations	1997	5.756578274601983	6.339748087665354	2795877
2795959	NLP	design and implementaion of a parallel inference machine for first order logic: an overview	1987	4.877673723969592	6.1049216559813	2795986
2796445	PL	how to print with style	1982	5.394873217399501	6.890648482484247	2796472
2796879	SE	proving assertions is also useful	1997	5.179287076882197	5.888003975892648	2796906
2798544	Arch	application development on the src computers, inc. systems	2005	5.940442193253367	6.829661850296457	2798571
2798686	Logic	model checking algol-like languages using game semantics	2002	4.554498920701388	6.440296248475868	2798713
2798710	PL	implementation of a capability-based data abstraction	1978	5.680851156617766	6.9185181193815435	2798737
2799356	Logic	control delimiters and their hierarchies	1990	4.544750245358372	6.839434558300706	2799383
2799677	NLP	dyngenpar - a dynamic generalized parser for common mathematical language	2012	4.514952389140757	6.270896920805939	2799704
2799759	NLP	efficient bottom-up parsing	1991	4.485755209660878	5.6826426713197735	2799786
2799881	AI	compositional abstractions for search factories	2004	5.565617761416034	5.5903587344906995	2799908
2800978	PL	a pure object-oriented embedding of attribute grammars	2010	5.0887381781314485	7.427985438588936	2801005
2801698	PL	engineering a program optimizer	1978	5.127599202840113	7.398144692535403	2801725
2801862	PL	structured programming in cobol: an approach for application programmers	1977	6.066007112722473	6.717022573372124	2801889
2802370	PL	g: a functional language with generic abstract data types	1987	5.057327106331806	7.025897657682662	2802397
2803846	PL	a stream data type that supports goal-directed pattern matching on unbounded sequences of values	1990	4.815793391560996	6.523121491070322	2803873
2803875	PL	constraint hierarchies	1987	5.567958680351208	6.393899143910588	2803902
2804331	Logic	refinement and implementation techniques for abstract state machines	2002	5.316510546522476	5.6591816569388325	2804358
2804462	PL	the paradigm of open c++	2003	5.525948597051618	6.5222455830327055	2804489
2804693	AI	method dispatching and type safety for objects with multiple roles	1997	4.519250992200094	6.940603503480839	2804720
2805891	Logic	behavioral subtyping and behavioral enrichment of multimethods	2000	4.6036556408785705	6.959718027483749	2805918
2806712	ECom	a method for translating clp (r) rules into objects	1993	4.463266565980893	6.7718219332023235	2806739
2806771	PL	notes on implementing sets in prolog	1992	5.447929991156527	6.242042290665202	2806798
2807179	Logic	specifying instruction-set architectures in hol: a primer	1994	4.859167333359129	6.741599498164679	2807206
2807319	PL	a precise model for contextual roles: the programming language objectteams/java	2007	5.751740649281659	6.198380689313381	2807346
2807511	PL	type safe metadata combining	2017	5.9270713026479624	6.316547634804599	2807538
2807581	DB	correctness proofs of syntax-directed processing descriptions by attributes	1979	4.658005140637054	6.93553931371724	2807608
2807922	HPC	high performance linear algebra package for fortran 90	1998	5.244706353395657	6.748909462121374	2807949
2808513	HPC	a decision-based framework for comparing hardware compilers,	1984	6.193421101053957	5.9651513189526035	2808540
2809119	PL	lessons from the design of a standard ml library	1993	5.576742382393453	6.673835934732916	2809146
2809192	AI	visualization of logical formulas	2018	6.26603078690727	5.988120168994421	2809219
2809695	Graphics	rendering with poxels: a software architecture for programmable shading systems	1999	5.923440391568164	7.026377980457103	2809722
2809857	Web+IR	xslt version 2.0 is turing-complete: a purely transformation based proof	2006	5.6281170747347975	6.890371737313397	2809884
2809935	AI	a sql database system for solving constraints	2008	5.064398259189026	5.718880060288216	2809962
2810585	AI	an action semantics for mml	2001	6.144088411123747	7.395310497729881	2810612
2810869	Logic	combining symbolic and numerical domains for information leakage analysis	2018	4.601859071366926	7.150303565524875	2810896
2810947	PL	the design of the zinc modelling language	2008	5.950193922566964	7.338360221264077	2810974
2811863	PL	a prolog framework for the rapid prototyping of language processors with attribute grammars	2006	5.6056958270512665	6.600548394617528	2811890
2812264	SE	two square-root approximations	1958	5.9077911414192315	5.653672085331353	2812291
2812593	PL	molecule-oriented programming in java	2002	5.9948266119837275	6.203696947930607	2812620
2812858	PL	f# for scientists is written by jon harrop, and published by wiley-interscience , (c) 2008, hardback, isbn 0470242116 , 368pp	2010	5.790635485240456	6.128405297222492	2812885
2813404	PL	object analysis of program	1994	4.998672770470824	7.207494721764946	2813431
2813825	SE	automatic algorithm selection for complex simulation problems	2012	5.759717249577446	6.8986018368101645	2813852
2815759	PL	algebraic processing of programming languages	1998	5.091709359341478	6.913290400137024	2815786
2816102	PL	a neural compiler	1995	5.4350643518687765	5.967227554827264	2816129
2816177	Logic	a generative methodology for the design of abstract machines	2000	4.426502169714628	6.923852665986973	2816204
2816208	NLP	maintaining cross references in manuscripts	1988	5.11397210229987	6.274098146068504	2816235
2816286	HCI	c# 5.0 pocket reference: instant help for c# 5.0 programmers	2008	5.1532231613923845	7.0941504660746295	2816313
2817135	AI	mathematics recognition using graph rewriting	1995	6.263014027266446	5.704005510532648	2817162
2817184	PL	a portable algol 68 implementation for minicomputers developed using the cdl compiler compiler technique	1983	5.714980630989237	5.592654776902706	2817211
2817926	Robotics	control situations in supervisory control	2004	6.079425833131412	5.761936384233046	2817953
2818164	PL	persistent first class procedures are enough	1984	6.076487472079253	7.061742148899881	2818191
2818370	PL	genericity in object-oriented programming languages	2001	5.60636117817732	7.130623333393023	2818397
2819261	SE	visualization as debugging: understanding/debugging the warren abstract machine	1993	5.492708142947249	6.872044443010664	2819288
2819418	AI	logical and set calculations in the framework of geometrical informatics paradigm	2014	4.508142065151366	5.536453736280526	2819445
2819727	Logic	a machine-verified code generator	2003	4.842707150470883	7.313318610438273	2819754
2819860	NLP	on what linda is: formal description of linda as a reactive system	1997	6.061806287178162	6.168967999361261	2819887
2819876	ECom	parameterizing behavior trees	2011	5.995861404184983	6.913076743007992	2819903
2820565	PL	array morphology	1993	4.6932873050493535	7.337914142834219	2820592
2820816	HCI	the mobile programming system, janus	1974	5.397477971037103	7.010937294134977	2820843
2821022	OS	a code for non-numeric information processing applications in online systems	1967	5.642357879214723	5.669241778013773	2821049
2821046	PL	machine-independent register allocation	1979	5.36518107192679	6.806366739482857	2821073
2821158	NLP	augmenting test case generation using statechart	2004	6.299520508584293	6.200710219186225	2821185
2821543	PL	logic java: combining object-oriented and logic programming	2011	5.569913028021072	7.271349429514352	2821570
2822234	AI	on translating geometric solids to functional expressions	2003	5.605658193679306	6.974536358366415	2822261
2822286	SE	a new language for the visualization of logic and reasoning	2005	6.172810025147216	6.341447249098259	2822313
2822502	SE	structured statistical syntax tree prediction	2013	5.2709400223329	6.285263296528586	2822529
2822526	Theory	programming with arrows	2004	4.521120249552835	6.623698268166286	2822553
2822543	AI	automatic programming using abstract data types	1983	4.435391656283377	6.444597985238509	2822570
2823236	PL	cadabra: a field-theory motivated symbolic computer algebra system	2007	4.489003805782801	6.453133804465238	2823263
2823567	PL	s.t.e.p.: the easiest way to optimize a function	1994	6.030990329918134	6.183321157009753	2823594
2824108	PL	final data types and their specification	1983	4.908046892924967	6.846183126294773	2824135
2824487	PL	a portable language for system development	1973	6.1787387653049946	6.609175101309725	2824514
2825501	PL	algorithm 722: functions to support the ieee standard for binary floating-point arithmetic	1993	5.331094486134602	5.702419456838932	2825528
2826000	EDA	simulation framework for timed and stochastic petri nets.	1991	5.693479988059106	6.157603732725122	2826027
2826793	SE	time in structured occurrence nets	2016	5.706841069074863	6.475708835122321	2826820
2827042	PL	concepts and their use for modelling objects and references in programming languages	2008	5.648423322535717	7.166472416600171	2827069
2827790	Theory	characteristics of the fortran cep language	1964	5.696048909366507	6.147114902349321	2827817
2828929	Logic	implementation concepts in vaucanson 2	2013	5.709166241972292	6.107285318139469	2828956
2829431	PL	optimized demand-driven evaluation of functional programs on a dataflow machine	1986	5.353139927005588	5.736469748742116	2829458
2829723	AI	parallel processing in artificial intelligence	1985	5.477034247780453	6.043716200259805	2829750
2829787	EDA	integration of graph transformation and temporal logic for the specification of distributed systems	2000	5.546317694061445	6.5928170563146296	2829814
2830022	EDA	petri nets and self-stabilization of communication protocols	1996	5.509475050358776	5.727699404516921	2830049
2830452	PL	a hierarchial approach to formal semantics with application to the definition of pl/cs	1979	4.797454534154548	6.3737125796080125	2830479
2830591	PL	compiler prototyping using formal semantics	1984	5.218813773978243	7.011656501171617	2830618
2830893	PL	conversion of decision tables to computer programs	1965	5.1041378014666225	7.115809046094817	2830920
2831130	NLP	interface methods: a means for the integration of inheritance in a concurrent oop language.	1996	6.191038669791093	5.8743049479518845	2831157
2831459	PL	units-of-measure correctness in fortran programs	2016	5.720516996268017	5.895096006627357	2831486
2832810	Logic	a case study in language design: euclid	1978	4.3981664668755585	6.2018057416314605	2832837
2833492	PL	the structure of modular program	1980	5.462663920440088	6.343139551537356	2833519
2834986	HPC	aladin: a scanner generator for incremental programming environments	1992	5.595062990898468	7.158273747713388	2835013
2835142	AI	agent programming in ciao prolog	2001	6.025727552953538	6.443102201750923	2835169
2835307	PL	a multiparadigm programming approach for developing knowledge-based systems	1995	6.247667974496359	6.376033153221238	2835334
2835808	Arch	a language for the description of digital computer processors	1968	5.6708237760491205	6.2556453310294025	2835835
2836219	Logic	graphs in metaframe: the unifying power of polymorphism	1997	5.141167314771785	6.394740026960008	2836246
2836431	PL	a file definition facility for file structures	1974	5.175044831996148	6.93024573127257	2836458
2836510	PL	new control structures to aid gotolessness	1975	4.634194397838667	6.578426291567287	2836537
2837295	PL	mikibeta: a general gui library for visualizing proof trees system description and demonstration	2010	4.828110841781507	6.00170044154211	2837322
2837327	PL	towards efficient compilation of a dynamic object-oriented language	1992	5.373946848322892	5.60319434744912	2837354
2837556	HCI	specifying and implementing ui data bindings with active operations	2011	6.2722753819704735	6.72248784344905	2837583
2838395	PL	simcal: the merger of simula and pascal	1986	6.13713757546481	6.398119066135532	2838422
2839073	PL	tool support for language design and prototyping with montages	1999	5.468192780592892	6.958800402366122	2839100
2840207	PL	femto-vhdl : the semantics of a subset of vhdl and its embedding in the hol proof assistant	1993	4.840601576228222	6.726259087208499	2840234
2841018	PL	deriving non-hierarchical process topologies	2001	4.498056826936927	6.668008295485546	2841045
2841060	Networks	designing and implementing choices: an object-oriented system in c++	1993	4.447166311747537	7.110555139632024	2841087
2841905	OS	scavenger: automating the construction of application-optimized memory hierarchies	2015	5.4030652893510815	5.699313685500044	2841932
2842411	SE	a simple nucleus written in modula-2: a case study	1980	5.544622222709924	6.807522356719727	2842438
2842631	AI	symbolic computing with and without lisp	1980	4.839897322784512	5.644339781422823	2842658
2844288	Logic	declarative debugging of abstract data types in gödel	1993	5.048187422326116	6.923844899728929	2844315
2844302	AI	a java library for genetic algorithms addressing memory and time issues	2009	5.839559575437479	5.690914458485477	2844329
2844780	PL	towards a study of meta-predicate semantics	2010	5.6650158277643845	7.1458774619959184	2844807
2845336	NLP	a type-theoretical system for the fracas test suite: grammatical framework meets coq	2017	5.111566711142936	7.0622649902535715	2845363
2845556	PL	a core calculus of classes and mixins	1999	4.5025367355787305	7.4399696572589	2845583
2845826	PL	construction of a transportable, multi-pass compiler for extended pascal	1979	5.349098814166138	6.9001678558687365	2845853
2846210	PL	program generation for ml modules (short paper)	2017	5.602951403594644	7.099823682945898	2846237
2846662	PL	improving legibility of formal proofs based on the close reference principle is np-hard	2015	4.430854837975971	6.292007716995922	2846689
2846776	SE	computer software and copyright	1975	6.07903125900339	6.516402118997897	2846803
2846817	PL	cpp denotational semantics	2003	4.820590069012379	7.135622668292854	2846844
2846818	Arch	an easily-implemented language for computer control of complex experiments	1974	5.7210254081577006	6.13648038730883	2846845
2847314	HPC	a distributed and cooperative environment for computer algebra	1996	6.0689943384348775	6.38483029619118	2847341
2847582	Theory	conversion of programs between computers: interpreters, simulators and compilers	1973	5.566458236681715	6.1466723959032565	2847609
2847715	Vision	merging the autoview image processing language with prolog	1986	5.8878372917824215	5.567157330139119	2847742
2848744	Theory	the termination problem in the dual versions of a distributed system	2000	4.840358923645151	5.793315913136655	2848771
2849493	HPC	remark on algorithm 622: a simple macroprocessor	1998	5.8584154859733495	6.220449178855879	2849520
2849518	SE	utilizing fifth generation technology in software development tools	1991	6.2764537386794865	6.528301413900371	2849545
2849853	PL	wxhaskell: a portable and concise gui library for haskell	2004	6.204186022756398	7.15334764980412	2849880
2850223	EDA	relational petri nets: a new class of high-level petri nets	2000	5.251662419460373	5.704436976860019	2850250
2850301	SE	an overview of anna, a specification language for ada	1985	5.554222201250484	6.561427026313112	2850328
2850658	SE	some extensions to algebraic specifications	1977	5.064074305232916	5.952650322303504	2850685
2851297	PL	phood: tool description, analysis techniques, and case studies	2014	5.597469990411255	7.4170750861876265	2851324
2852444	Theory	plex languages	1971	5.468368718407524	5.894584463737049	2852471
2852829	Logic	lingva: generating and proving program properties using symbol elimination	2014	4.404536289268957	7.40433591233623	2852856
2852922	PL	recursive techniques in problem solving	1967	5.264155600652646	6.070294131483201	2852949
2853268	Robotics	a multi-phase deadlock detection method for reactive systems based on uml-models	2006	5.12790865845219	5.727668181810478	2853295
2853926	PL	interactive proof checking	1984	4.486842005814793	7.071015150005929	2853953
2854929	DB	concurrent systems - an integrated approach to operating systems, databases and distributed systems	1993	6.1175741386107	5.805391847747552	2854956
2855831	PL	a combinator library for the design of railway track layouts	2011	5.616763345177835	5.713030444107951	2855858
2856229	PL	syntactic and semantic augments to algol	1960	4.669748995353205	6.594941431248598	2856256
2856291	PL	a real-time version of sequencel	1999	4.786468727946138	6.456344827082384	2856318
2856297	PL	i-java: an extension of java with incomplete objects and object composition	2009	5.145055715796737	7.272778208891761	2856324
2856619	SE	some statistics on the reasons for compiler	1974	5.846729662604938	6.086430157090115	2856646
2857084	PL	architecture of the symbolics 3600	1985	5.670875281472955	6.500119769355285	2857111
2857371	PL	error reporting in parsing expression grammars	2016	4.817707414797666	6.723009912057622	2857398
2857741	PL	macro based systems for information retrieval	1978	5.641267030577653	6.607228809986098	2857768
2857865	DB	operational semantics of transactions	2003	4.899834554873045	7.267010946568563	2857892
2857902	PL	a to z: c language shortcomings	1988	5.946128409664541	6.521888683747504	2857929
2858397	PL	a proof system for the parallel object-oriented language pool	1990	4.841038651528856	7.316739565895978	2858424
2858438	AI	building models for qualitative prediction of system dynamic behavior	1990	6.183117588594585	5.6015368957328935	2858465
2858444	PL	integrating subtyping, matching and type quantification: a practical perspective	1996	4.59320980907577	7.070940556580674	2858471
2859095	Logic	probreach: a tool for guaranteed reachability analysis of stochastic hybrid systems	2015	4.473480261204036	5.613842403971041	2859122
2859277	SE	systematic program development	1988	4.443006067541254	7.087832124079956	2859304
2860355	AI	preliminary formalization of an incremental hierarchical constraint solver	1993	4.526861557231771	6.1723046837194815	2860382
2860693	NLP	antlrworks: an antlr grammar development environment	2008	5.9253107645518925	7.1816806524832515	2860720
2860750	AI	diagnosis based on description of structure and function	1982	4.623030029401853	5.691079982231332	2860777
2861215	NLP	automated translation of occam to a concurrent logic language	1991	4.6135800785291705	7.301869914525202	2861242
2861409	PL	specifying representations of machine instructions	1997	5.100381540282285	7.353555455827233	2861436
2861585	AI	environments for term rewriting engines for free	2003	4.901301739841526	7.116602147403535	2861612
2861835	DB	workflow composition and description tool	2011	5.619648814226167	6.343647730773156	2861862
2861894	PL	a style analysis of c programs	1985	6.156192079418696	5.546235186834156	2861921
2862713	Logic	a proposed interpretation in algol	1959	4.3755953013529325	6.428141390203407	2862740
2862849	Logic	towards a constraint-based engineering framework for algorithm design and application	1996	4.552668371502387	5.704592346246723	2862876
2864073	PL	statically qualified types in timor	2005	4.386499125833657	5.8486370168509785	2864100
2864466	Robotics	fuzzy logic control tool kit: real-time fuzzy control for max/msp and pd	2006	5.30244887420062	5.7815251404774886	2864493
2864617	PL	scheme with classes, mixins, and traits	2006	4.657945706379451	7.449589012473883	2864644
2866003	PL	refactoring: improving the design of existing code	1999	5.534284165095941	5.816162798199267	2866030
2866789	Logic	generic modelling with graph rewriting systems: paramateric polymorphism and object-oriented modelling with progress.	2002	5.754956213810239	5.9068355787941815	2866816
2867031	AI	practical investigation of constraints with graph views	1999	4.901696208574493	5.55830875897283	2867058
2868475	PL	visual syntax diagrams for programming language statements	1990	5.80390651312434	6.379901404479784	2868502
2869037	PL	fortran: a viable option for the introductory computer science course	1987	6.033479557989803	6.566045058594439	2869064
2869388	NLP	internals and externals of the fnc-2 attribute grammar system	1991	5.5384565779267625	6.167049681127208	2869415
2869988	PL	computerizing mathematical text with mathlang	2008	4.831857053358217	6.295015678876419	2870015
2870012	HPC	procedure-oriented language statements to facilitate parallel processing	1965	5.163931620542576	6.639242168190885	2870039
2870380	PL	a fortran-compiled list-processing language	1960	5.5055039664660725	6.497563926144129	2870407
2871036	SE	new efficient techniques for dynamic detection of likely invariants	2011	4.684029659071411	5.645583810360949	2871063
2871318	SE	an analysis of pascal programs in compiler writing	1980	5.803993080870613	7.207308409393934	2871345
2871325	Logic	verification for asp denotational semantics: a case study using the pvs theorem prover	2017	5.309057164585537	7.286731064881969	2871352
2871554	PL	a model for self-modifying code	2006	4.760085703730741	6.895270162102251	2871581
2871960	PL	programming in modula-2	1983	4.378143495631118	6.957481005531187	2871987
2872006	AI	rule-based coordination of logic programs	1996	5.208935760807945	7.3679409524273005	2872033
2872375	AI	object oriented database using frames in second generation apl	1990	5.626337486962679	6.721578403956032	2872402
2872807	HCI	contracts and types	2003	5.8144142075811684	5.917492406034921	2872834
2873484	PL	parallel functional programming using algorithmic skeletons	1993	5.103278087249074	5.6191643478823305	2873511
2873705	PL	orthogonal languages: a framework for program development	1992	5.791154057614917	7.196202885504861	2873732
2873837	PL	permission and authority revisited towards a formalisation	2016	5.110426544007738	6.463299256487794	2873864
2874039	SE	an ide-based, integrated solution to schema evolution of object-oriented software	2009	6.1830738372394585	7.015492256060744	2874066
2874069	ML	the c preprocessor and jensen's device	1990	5.679015970606371	6.221913745793742	2874096
2874226	Logic	automatic verification of security properties based on abstractions	2005	5.729597981858097	6.325552525469834	2874253
2875069	AI	critical agents supporting interactive theorem proving	1999	5.932273867540458	5.9788465872978165	2875096
2875111	PL	design and specification of iterators using the swapping paradigm	1994	4.460985123425321	7.180724395357545	2875138
2875378	HCI	new formian and epilanguages for preprocessing of space structures	1993	5.4905272025164065	5.7598007465015755	2875405
2875850	Robotics	integrating emerald into a system for mixed-language programming	1990	5.862646973048342	7.236719968102026	2875877
2875893	Logic	foundations for behavioural model elaboration using modal transition systems	2012	4.623876271652514	6.16822917851536	2875920
2875991	PL	multiple exits from a loop without the goto	1973	4.74000341157713	7.054398913791832	2876018
2876230	PL	ginger: implementing a new lisp family syntax	2009	5.203977109510247	6.870102240440742	2876257
2876646	Robotics	functional reactive programming (abstract)	1999	6.060866899114237	6.53828621168494	2876673
2877137	PL	"""""""constructive"""" and """"executable"""" specifications of protocol services by using abstract data types and finite state transducers"""	1983	4.709526316589423	6.0269094421387015	2877164
2877161	PL	mapping the interface description language type model into c	1989	5.634158392509378	7.338415580238425	2877188
2877230	PL	the uniform workbench - a higher order tool integration framework	1998	6.115326900982858	7.319526572737813	2877257
2877295	Logic	stp: a simple theorem prover for ibm-pc compatible computers	1990	4.96474841190406	6.482073468514513	2877322
2877411	AI	data-driven detection of recursive program schemes	2010	4.535531207256583	5.5553312661917245	2877438
2877439	PL	adding rule-based techniques to procedural languages	1988	5.3335936245459346	6.773996793104291	2877466
2879361	PL	an implementation of a code generator specification language for table driven code generators	1982	5.725221124877213	7.063391779419419	2879388
2879913	SE	an automatic-controller description language	1980	6.209643916312069	6.393266570924758	2879940
2881237	PL	an interpreter of attribute grammars and its application to waveform analysis	1981	4.598054647600762	6.650520344490691	2881264
2881682	NLP	the theory of parsing, translation, and compiling. 2: compiling	1973	5.080211161329053	5.572060854845391	2881709
2881684	SE	simula-a way of thinking	1979	6.050087782710695	6.44756798097775	2881711
2881824	SE	language constructs for defining features for reactive systems	2000	5.4408674993223025	5.895195599914997	2881851
2882181	Logic	feature interaction detection in the feature language extensions	2009	4.480661747033255	7.223584672833033	2882208
2882506	PL	the iitran programming language	1969	5.780831108842893	6.0289042096110705	2882533
2882650	PL	programming assurance cases in agda	2011	5.664799630951504	6.7203900410762	2882677
2882733	Embedded	supervisory control for behavior composition	2017	5.669950494242059	6.153992001307846	2882760
2882939	NLP	an implementation of phrase structures in algol	1972	5.201020429950068	6.3214796505262765	2882966
2883161	SE	openaccess: standard and practices	2012	6.167085362503334	6.307719480553764	2883188
2883222	Logic	fuzzy arithmetic and fuzzy ranking: a nonstandard approach	1999	4.753252004004882	6.091920071464018	2883249
2883390	PL	on inverse translation of machine language	1974	5.128476634511796	6.85296485683359	2883417
2883613	PL	choosing a programming language	2006	6.080068362618619	7.3208231825005745	2883640
2883907	Visualization	an efficient implementation of tiled polymorphic temporal media	2015	4.55838458080716	6.5685708176651785	2883934
2884769	Embedded	implementing parallel cell-devs	2003	5.6916910175485125	5.640278096293857	2884796
2885175	AI	configuration research and commercial solutions	1998	5.229811710549334	5.612973772866574	2885202
2885470	EDA	flexible modeling of linear schedules for integrated mathematical analysis	2007	5.829208752103584	5.594950624877937	2885497
2886767	PL	the alcor illinois 7090/7094 post mortem dump	1967	5.562532225433246	6.067896446208055	2886794
2887124	Logic	formal: a language with a macro-oriented extension facility	1980	5.2863720530139835	6.832335512539522	2887151
2887869	AI	formula databases for high-performance resolution/paramodulation systems	1994	4.504080882620987	5.706548229845975	2887896
2888170	PL	tree tranformations, functional languages, and attribute grammars	1990	4.600491319980798	7.109127415287308	2888197
2888324	NLP	isabelle/jedit as ide for domain-specific formal languages and informal text documents	2018	5.542002039908135	6.563709381142447	2888351
2888635	PL	elements for the formal description of systems	1986	5.200642284494276	7.1561956744176785	2888662
2889280	PL	the psg system: from formal language definitions to interactive programming environments	1986	5.1345192610618815	7.027693022768736	2889307
2890049	EDA	oberon-2 as successor of modula-2 in simulation	2001	6.015652811689822	6.300462123626838	2890076
2890507	Graphics	encapsulated hierarchical graphs, graph types, and meta types	1995	5.265674754447448	6.570910795895608	2890534
2890624	PL	cat: a 7090-3600 computer-aided translation	1965	5.736745980987371	6.426982594338827	2890651
2890681	PL	editing and compiling whole programs	1986	5.823695742772157	7.2422443860435095	2890708
2891032	SE	arrays and contracts for the specification and analysis of regular systems	2004	5.3576565952459365	6.932600971628442	2891059
2892236	PL	cz: multiple inheritance without diamonds	2008	4.584033031156932	7.414534427749754	2892263
2892714	PL	engineering real time systems - an object-oriented methodology using sdl (2. pr.)	1993	6.282823816513138	5.6666861258070025	2892741
2892815	Logic	auto: a verification tool for distributed systems using reduction of finite automata networks	1989	4.981455308700123	5.641402067983142	2892842
2893063	PL	scratchpad/360: reflections on a language design	1979	5.834107544004506	6.389039383006649	2893090
2893282	PL	an adaptable fsa simulator	2008	5.310157484434839	6.881913807395664	2893309
2893793	PL	issues in the design of an object oriented programming language	1991	5.2396556414685005	7.204681622839876	2893820
2894052	Logic	modelling and verification of an atomic action protocol implemented in ada	2001	5.638268942295004	5.6919970222143785	2894079
2894727	PL	program analysis for conversion from a navigation to a specification database interface	1983	5.525908571045372	6.888024258068968	2894754
2894860	Graphics	algorithm 936: a fortran message processor	2014	5.469842292541221	6.557348577730582	2894887
2895785	EDA	automatic analysis of electronic digital circuits using list processing	1966	4.560171735350033	6.643234762309857	2895812
2896164	SE	graphseq revisited: more efficient search for patterns in mobility traces	2013	5.644234997265824	5.850117922015784	2896191
2896276	Comp.	a grammar-based unification of several alignment and folding algorithms	1996	4.8013215985875215	6.134025929322507	2896303
2896922	PL	replacing ansi c with other modern programming languages	2014	6.2464225296044695	6.590701486568191	2896949
2897102	SE	extend owl-s dynamic semantics with rewrite logic	2008	4.710915273999065	6.5409725362624815	2897129
2897836	SE	what kind of a commons is free software?	2011	5.341294924648238	7.000398740188648	2897863
2898026	PL	charles: a data structure library for ada95	2003	4.754184661014136	7.046522095499863	2898053
2898342	PL	name resolutions using a microprogrammed interpretive technique	1973	4.611665853176769	7.1735882157125275	2898369
2899243	DB	change management with roles	1999	5.724351060401792	6.634777867700456	2899270
2899790	SE	proof pad: a new development environment for acl2	2013	5.937018022121942	6.993554087845237	2899817
2900001	PL	describing the semantics of java and proving type soundness	1999	4.948329995862124	7.180519319870763	2900028
2900442	Logic	automated coverage-driven testing: combining symbolic execution and model checking	2016	5.666075897900531	6.1057851142708826	2900469
2900796	SE	generation of formatters for context-free languages	1996	5.791125214996773	6.451548865866981	2900823
2901754	PL	a technique for subclassing and its implementation exploiting polymorphic procedures	1988	5.5040806512857205	7.0842809116061245	2901781
2901813	PL	tools to implement automata, a first step: astl	1997	4.962190873339348	7.269435687703009	2901840
2902188	SE	a complexity measure	1976	4.745877983949201	6.731035201475924	2902215
2902955	PL	separate compilation in modula-2 and the structure of the modula-2 compiler on the personal computer lilith	1983	5.967799220191155	6.238385569930987	2902982
2903004	PL	mathematics of program construction	2004	4.7235302533790255	7.301996470114088	2903031
2903357	PL	implementing dsls in metaocaml	2004	5.923796637723585	7.4072917958963265	2903384
2905054	PL	software reuse in an object oriented framework: distinguishing types from implementations and objects from attributes	2000	5.462667901271714	6.9134727923251775	2905081
2905374	PL	q'nial; a portable interpreter for the nested interactive array language, nial	1989	5.088373102193202	6.616810099722843	2905401
2905504	PL	generalization and instantiation for component reuse	2006	5.4596845398309615	6.835400728785827	2905531
2905566	PL	system description: twelf - a meta-logical framework for deductive systems	1999	4.577119172346623	7.171303417862117	2905593
2905901	PL	program generator systems	1977	5.678324025173162	6.670617385526135	2905928
2906274	DB	theorem-proving anonymity of infinite-state systems	2007	4.526280075414097	6.1092882408975235	2906301
2907441	PL	higher-order transformations with nested concrete syntax	2011	4.94026287255251	7.280578174317533	2907468
2907752	PL	a note on cheney's nonrecursive list-compacting algorithm	1972	4.834263344442252	6.915103484930581	2907779
2907799	PL	a note on the dangling else algol 60	1963	4.669842733359663	5.8508427648921755	2907826
2908399	PL	visualizing program execution	1996	5.7742670822268485	6.799698314062264	2908426
2909533	NLP	deep integration of the owl ontology language into ruby using metaprogramming	2008	5.234966817280755	6.773687406754049	2909560
2910028	PL	communication relations: a paradigm for parallel program design	1992	5.16850078584829	6.718183150892579	2910055
2910639	PL	calculate polytypically!	1996	4.991264266485817	7.256705666873045	2910666
2911057	SE	the effect of data structures on the logical complexity of programs	1987	5.175299074934924	6.992146223185292	2911084
2911319	PL	a grainless semantics for the harpo/l language	2009	4.9829557233704875	5.901491629976644	2911346
2911388	Logic	ml + fv = ♡? a survey on the application of machine learning to formal verification	2018	6.017253109342304	6.8229011893255365	2911415
2912071	PL	a graphical abstract programming language	1984	4.570389598060959	6.719110704391909	2912098
2912317	PL	adl: a dynamic object-oriented modeling language	1991	5.913784815240038	6.584631957316871	2912344
2912434	PL	a method for the time analysis of programs	1978	5.542921563069992	6.819876363904446	2912461
2912574	SE	a poor man's realization of attribute grammars	1979	5.68269949915733	6.199359403883982	2912601
2913055	Logic	instruction sequence notations with probabilistic instructions	2009	5.103283151814892	5.990423525497043	2913082
2913088	PL	oaklisp: an object-oriented scheme with first class types	1986	5.417771466926975	5.76145422132438	2913115
2913834	HCI	debugging program design documents: graphics vs text-based methodologies	1990	5.63030665956117	5.9910255333235805	2913861
2914577	PL	meta-programming with concrete object syntax	2002	5.770418775705668	7.44211048001781	2914604
2915009	PL	pyboolnet: a python package for the generation, analysis and visualization of boolean networks	2017	6.158307827053277	6.218706255822253	2915036
2915644	PL	an integrated operational semantics for a uml core based on graph transformation	2006	6.013138804899793	6.545017762171928	2915671
2916681	SE	ticl-a type inference system for common lisp	1990	5.299357518291825	7.438307352698478	2916708
2916728	Robotics	iteratively learning conditional statements in transforming data by example	2014	5.432489166364668	6.257449795083032	2916755
2916900	Arch	abstract machines modelling network control systems	1979	6.241407889092966	5.598462091991345	2916927
2916914	PL	scala for generic programmers	2010	4.5593613809940825	7.389621638730893	2916941
2917370	PL	using multiple graphs of programs to modify specifications	1999	6.161841534019822	6.725862690291435	2917397
2917632	DB	implementation of a prolog code database and source database in compiler-based systems	1987	5.167005888696088	5.71431058508247	2917659
2918253	AI	a code generator generator language	1979	5.795951162025254	6.957333839256131	2918280
2918830	PL	on the optimality of change propagation for incremental evaluation of hierarchical attribute grammars	1996	4.45479122316612	6.8834647423599575	2918857
2919200	EDA	signal convolution logic	2018	5.241862055512709	6.397349414595307	2919227
2919477	DB	input-output table constructed with private business data and its algebraic description	2015	5.5078041388827454	5.9469508907970265	2919504
2920669	OS	dynamic format specifications	1965	5.7520606138851615	6.4615103107238285	2920696
2920723	PL	an optimizing compiler for the icon programming language	1992	5.51294916756346	7.012398808444264	2920750
2921762	OS	structure of a lisp system using two-level storage	1967	4.777384201519297	7.139750988910898	2921789
2921802	PL	basic hytran simulation language: bhsl	1966	6.034297950589106	6.114928375649178	2921829
2921829	PL	feature-oriented programming: a new way of object composition	2001	4.644628338180445	7.367402765051968	2921856
2922380	Logic	modular verification scopes via export sets and translucent exports	2018	6.07550371858036	7.010939531582954	2922407
2923311	PL	modular programming with pascal	1981	4.80278227652524	6.6453653162256	2923338
2923492	HPC	a promising labeling scheme for on-the-fly data race detection.	2002	5.148309154785792	5.625755348179479	2923519
2924145	EDA	syntactic recognition of paralel proceses in formally defined complexes of interacting digital systems	1974	6.038843423005782	5.5744699866496354	2924172
2925021	PL	associations as a language construct	1999	5.853568576313082	7.330801661435407	2925048
2925063	DB	a generic persistence model for (c)lp systems (and two useful implementations)	2004	5.4398517592020115	6.902824364965513	2925090
2926408	Theory	allocating storage for extendible arrays	1974	4.587400817850386	6.830612505130137	2926435
2926454	HPC	pascal: an overview	1979	5.9725477052927625	5.964263528063271	2926481
2927110	Vision	creating web-based laboratories	2005	5.681835870113423	6.526441908304262	2927137
2927620	PL	term graph rewriting and mobile expressions in functional languages	1999	5.560486360259408	7.315942278584917	2927647
2927770	PL	enhancing modular oo verification with separation logic	2008	4.49840649989329	7.191366709847096	2927797
2927933	PL	modular programming in c: an approach and an example	1985	5.306048516443928	6.712191320011183	2927960
2928157	PL	incremental, informal program acquisition	1980	5.162093706674873	6.425486982975956	2928184
2928297	PL	pact loop expansion	1956	4.543571548849457	6.7582320174871455	2928324
2928882	AI	a reading algorithm for constraint diagrams	2003	5.240892849917161	5.887230498746155	2928909
2929049	AI	program design for knowledge-based systems: graham winstanleysigma press, uk (1987) £12.95, isbn 1 85058 066 9, 230pp	1988	5.105079419729948	6.3885952896820815	2929076
2929372	PL	dynamically-valued constants: an underused language feature	1995	6.054051186059799	6.091524623709957	2929399
2929995	PL	two implementation models of abstract data types	1987	5.264673362146191	6.716481132665054	2930022
2930166	SE	ccd: an integrated c coding and debugging tool	1993	5.4218269037706746	7.119793363566233	2930193
2930362	PL	an error-correcting parse algorithm	1963	4.917090983756537	6.663302212855696	2930389
2930410	PL	an institution for object-z with inheritance and polymorphism	2015	5.355832558489158	7.421817984009513	2930437
2930961	PL	silicon compilation of very high level language	1992	4.726372238718444	7.130253314184236	2930988
2930998	PL	a high level data sublanguage for a context-addressed segment-sequential memory	1974	4.881012322828504	6.610274993954851	2931025
2931134	NLP	language translation	1958	4.697313962938313	6.205244635181158	2931161
2931874	PL	compact coding of syntactically correct source programs	1985	4.707968244126053	6.607617539384103	2931901
2932738	SE	return value adapter pattern	2014	5.642020247573732	7.1103645627157475	2932765
2933887	PL	program specification and development in standard ml	1985	5.019097284645722	7.419074146347812	2933914
2935185	PL	static integration of sql queries in c++ programs	2014	5.34777341746011	7.194546471297397	2935212
2935575	AI	a comparison between asynchronous backtracking pseudocode and its jadel implementation	2017	5.2094992627993095	6.116325662499451	2935602
2935835	PL	mathematica solutions to the issac system challenge 1997	1997	5.385414961851551	6.127102556500336	2935862
2936040	Logic	ontrack: the railway verification toolset - extended abstract	2016	6.101666820066325	5.893462127572407	2936067
2936246	HPC	an abstract machine for parallel graph reduction	1989	4.840543972467995	5.594766002814988	2936273
2936830	Metrics	a taxonomy of event time representations	2017	5.76823736559596	7.087247515008876	2936857
2937771	PL	declaratively solving tricky google code jam problems with prolog-based eclipse clp system	2015	4.516438295941696	6.910618312382924	2937798
2938574	Arch	a critique of common lisp	1984	5.919198907440853	6.121463050999688	2938601
2938586	NLP	off-and-on tokens	2000	5.109748813204215	6.497026027353865	2938613
2939489	Crypto	automatic implementation of formal descriptions of communication protocols	1985	6.006001577699935	5.594291594460738	2939516
2939506	PL	adding regular expressions to pascal	1988	5.086305453993206	6.622151781993215	2939533
2939673	PL	specific features of the control structure in the programming language markiz	2005	5.621593805713268	6.993350165621525	2939700
2940423	NLP	apl2: getting started	1991	5.982333272347852	6.090529385641935	2940450
2940602	Logic	concurrent systems analysis using ecatnets	2000	4.873509846379863	7.385540347254431	2940629
2941024	SE	using the divide and conquer strategy to teach java framework design	2004	6.050256379385807	6.3068042682398096	2941051
2941961	PL	a special-purpose language for picture-drawing	1997	5.434873993328118	6.755665858860577	2941988
2942244	Security	specifying context-aware runtime security policies using an algebraic policy specification language	2004	5.574844514521622	6.0692258350837935	2942271
2942352	Logic	csp and csp nets: a dual model for protocol specification and verification	1984	5.211696561231234	5.763916071781957	2942379
2942929	NLP	new syntax for if- and case statements	1988	4.659646699622494	6.43303932886045	2942956
2942980	SE	retrieving re-usable software components by polymorphic type	1989	5.4257031899139045	7.010835269280994	2943007
2943082	Embedded	striver: stream runtime verification for real-time event-streams	2018	5.5652587699150455	5.697427943640839	2943109
2943237	PL	a new algorithm for converting arithmetic expressions	1989	4.583977345891958	6.5828470526585265	2943264
2943645	DB	xml language-oriented processing with xlop	2009	6.101696349068767	6.901799100874905	2943672
2944620	SE	a relational approach to support software architecture analysis	1998	4.441727634152219	6.748434374074002	2944647
2945053	PL	polymonad programming in haskell	2015	4.4022840536793515	7.332121051659057	2945080
2945189	PL	constructing natural language interpreters in a lazy functional language	1989	4.486340568316196	6.378461300077572	2945216
2945262	PL	an interpreter for the programming languages predicate logic	1975	4.595034529750016	6.175235009366112	2945289
2945278	SE	a type checking tool for a formal specification language	1994	5.492021865448928	6.075361743896343	2945305
2945851	Robotics	an oberon linker for an imperfect world - more notes on building your own tools	2003	6.228127694066679	6.5079283607094345	2945878
2946612	DB	an active rule base simulator based on petri nets	2005	6.101449019526624	6.900088788615325	2946639
2946843	SE	integration of two kinds of syntax for requirements description and its future development	2018	4.58350561987613	6.345029326498112	2946870
2947271	PL	experiments in natural language processing	1990	5.8546924329250185	6.356914941739043	2947298
2948114	DB	the situation in object-oriented specification and design	1996	4.804053396071264	6.540239561895113	2948141
2948447	PL	semantic decomposition of computer programs: an aid to program testing	1974	5.1100473867228615	7.404957616228021	2948474
2948779	Logic	high-level tools for language implementation	1991	5.0734255809150905	7.14063926316655	2948806
2948857	ML	explanation of owl entailments in protégé 4	2008	4.470092447301802	6.021694799410144	2948884
2949900	PL	intra-step interaction	2004	4.4330425626419885	7.351098205108887	2949927
2950252	Vision	automatic generation of answers using solution network for mathematical exercises	2005	5.267262264262811	5.553169179920006	2950279
2950758	PL	patterns for c iterator interfaces	2017	6.041788379236258	7.186317242769822	2950785
2951461	PL	a new architecture for transformation-based generators	2004	4.829381124456284	6.351592630536173	2951488
2953594	PL	the design and implementation of the self compiler, an optimizing compilet for object-oriented programming languages	1992	4.925837614465144	7.447763958949546	2953621
2954208	HCI	erasure in design space exploration	2000	4.501114987116802	7.446734869788972	2954235
2954715	Logic	logic for modeling product structure	2010	6.234420078875874	7.424054747142688	2954742
2955300	SE	object identity and dynamic recomposition of components	2001	4.889862685873551	7.189477222704109	2955327
2955304	PL	haskell 98: compiler pragmas	2003	5.428830120807387	6.696276092938054	2955331
2956801	NLP	reusing batch parsers as incremental parsers	1995	4.5404510843112345	6.3492662297305085	2956828
2957433	EDA	impacting verification closure using formal analysis	2010	5.647774824329465	6.378423187371182	2957460
2957609	HPC	a free-format data input scheme written in standard fortran (ansi 66)	1981	5.470652613538093	6.226940965418117	2957636
2957802	AI	modelling jackson's programming method	1993	4.776654069535481	6.434976320082736	2957829
2958365	PL	the ttc 2014 fixml case: rascal solution	2014	6.2043499619140015	6.705183162733908	2958392
2958979	PL	interactive fortran 77, a hands-on approach : edited by i. d. chivers and m. w. clark, ellis horwood limited	1985	5.07949383184144	6.453188883736295	2959006
2959017	EDA	specifying hardware in temporal logic & efficient synthesis of state-diagrams using prolog	1984	4.475543359614019	5.704811872653928	2959044
2959701	PL	application-specific foreign-interface generation	2006	6.006679697589978	7.131214970022374	2959728
2960410	PL	analysis of pointer “rotation”	1980	4.397667601444359	7.097045396732521	2960437
2960719	PL	studies in the theory of algebraic models of programs with procedures	2016	5.18385776201137	7.096675147810871	2960746
2961206	PL	program behavior at the symbolic level	1976	5.027807167489597	6.925389343912048	2961233
2961277	ML	computation of the knuth-morris-pratt skip tables	1998	4.7830166353161525	6.0847241575988384	2961304
2961433	SE	ada software development using generics	1988	5.488251440046693	7.313116105936885	2961460
2961868	PL	binding time optimization in programming languages: some thoughts toward the design of an ideal language	1976	4.510709206603963	7.3522023269400085	2961895
2961891	Logic	discrete event simulation modeling: directions for the '90s	1992	5.265702275324332	5.880808445526252	2961918
2962289	PL	modular generics	2004	5.368556010505047	7.088971441112722	2962316
2962304	HCI	logichart: a prolog program diagram and its layout	2007	4.462171133286944	5.9588581757915975	2962331
2962376	AI	algorithm 309: gamma function with arbitrary precision	1967	4.840276414583659	6.239352717515553	2962403
2963055	PL	higher-order attribute grammars and editing environments	1990	5.226858824147803	7.0183412862867245	2963082
2964816	Arch	tool for computing cohesion and coupling in ada programs: diana dependent part	1993	6.040350434176718	6.886486529611772	2964843
2965591	AI	an analytic model based on asp for maintaining zpds in cscl environments	2005	5.016846225100268	5.8685080320011815	2965618
2965966	PL	a collection of tools for making automata theory and formal languages come alive	1997	4.985494375415709	6.366108359106027	2965993
2966073	SE	natural language parsing for fact extraction from source code	2009	5.989214166445508	7.0758639362993705	2966100
2966533	Logic	specification and verification of declarative open interaction models - a logic-based framework	2009	5.212456764005571	5.825161140779872	2966560
2967041	PL	supporting visual editors using reference attributed grammars	2012	5.061538763358647	6.116032953137487	2967068
2967262	HPC	compiler generation tools for c#	2003	5.151242514477242	7.006177788656987	2967289
2967969	AI	scaling up self-explanatory simulators: polynomial-time compilation	1995	5.977915897542469	6.3757788628527	2967996
2968362	AI	behavior composition optimization	2013	6.128300515299751	5.824554244708453	2968389
2968396	SE	the analogy between electrical networks and flowcharts	1980	5.1283494406547785	5.800151773180276	2968423
2969096	Logic	gom: a strongly typed persistent object model with polymorphism	1991	4.941584569942874	6.8159530623946605	2969123
2969285	PL	on the use of type predicates in object-oriented software: the case of smalltalk	2014	5.570670017527224	7.228218781260677	2969312
2969519	SE	an approach to the transportation of computer software	1985	5.040465420586274	6.555558893526246	2969546
2969773	PL	database manipulation in haskell 1.3	1995	4.880529685099528	6.916788246107304	2969800
2969842	PL	secure information flow in object oriented languages	2004	5.255705799913487	5.556305496182182	2969869
2970026	PL	modular extensions for modular (logic) languages	2011	5.1413467809397995	7.189921569369079	2970053
2971033	Logic	implementing temporal logics: tools for execution and proof	2005	5.593189773223494	6.932493555595117	2971060
2971161	Visualization	high performance linear algebra package lapack90	1998	5.131685912424349	6.790175039200572	2971188
2971209	AI	constraintlisp: an object-oriented constraint programming language	1992	5.186994144495468	6.331547125380009	2971236
2971382	ML	immediate turnround-an elusive goal	1982	5.704314416679157	5.587622691296959	2971409
2971855	Logic	arch-comp18 category report: continuous and hybrid systems with nonlinear dynamics	2018	4.831878836832604	6.0942972585461295	2971882
2972351	Robotics	modeling and research of the e-government system based on petri net	2008	5.793434110845418	5.896538176487336	2972378
2973624	Graphics	portability of mathematical software coded in fortran	1977	5.655708473438237	6.512767243791648	2973651
2974285	PL	movie-based representation of reduction operations in numerical computing	2011	5.105081737294364	6.732535768268254	2974312
2974875	AI	the semantics of augmented constraint diagrams	2005	4.939695088262612	5.651554630845284	2974902
2974998	NLP	generating xtag parsers from algebraic specifications	2006	4.584124021107337	6.307289369446268	2975025
2976487	PL	supporting an object-oriented programming methodology using ps-algol	1989	5.752434620701607	7.042656302972512	2976514
2976656	PL	cobol vs. pl/1: some performance comparisons	1984	5.045947983119581	6.848729247703793	2976683
2977223	HCI	input/output facilities in lisp 1.9	1978	6.088981455298256	6.247517578308464	2977250
2977255	PL	generic programming in 3d	2009	5.511230593028939	6.344622619981793	2977282
2977791	PL	programming language feature agglomeration	2014	5.752260066878649	7.037627536628159	2977818
2978290	PL	some observations on the in- and output in high-level languages	1983	5.985952790901287	6.577529168615787	2978317
2978398	PL	realization of multimethods in single dispatch object oriented languages	2005	5.693467795122771	7.383615195808831	2978425
2978508	AI	an agent team based on flux for the promas contest 2007	2007	6.167432010154503	6.6390327574254	2978535
2978608	PL	bytecode compression via profiled grammar rewriting	2001	4.7441043813465	7.270836016626897	2978635
2979727	PL	an exemplar based smalltalk	1986	5.4109621804827945	6.48025911556342	2979754
2980184	AI	a probabilistic parser applied to software testing documents	1992	5.592536018401178	6.415029358429455	2980211
2980283	PL	issues in the design of a parallel object-oriented language	1989	5.918501396514367	6.620244931983294	2980310
2980918	AI	whither goeth fortran?	1978	5.500160607924954	6.290696775958871	2980945
2981468	PL	program structure and clarity (abstract)	1990	4.890718062151898	6.502264974393039	2981495
2982470	AI	acthex: implementing hex programs with action atoms	2013	5.1615523653575455	6.466402615308479	2982497
2982787	EDA	towards a standard hardware description language	1984	5.6245208326209735	7.044518161314485	2982814
2984002	PL	syntactic analysis by digital computer	1962	5.069841230291028	6.2375741789916095	2984029
2984319	NLP	sathe: some aspects of an algol implementation	1980	5.574686889447387	6.332390687020768	2984346
2984796	PL	a compiler backend for generic programming with arrays	2004	5.369729773580411	6.0718189657740425	2984823
2985203	PL	algorithms: acm algorithm 259: legendre functions for arguments larger than one	1965	5.428054430287241	6.347494480753003	2985230
2985539	PL	a software science counting strategy for the full ada language	1987	4.518390548428641	7.152501528509389	2985566
2985605	PL	getting rid of labels	2009	5.088778432504047	5.903810023944025	2985632
2985975	Arch	a model for and discussion of multi-interpreter systems	1979	5.253803990467528	5.78377815710624	2986002
2987016	Logic	combinatory synthesis of classes using feature grammars	2015	4.609574664465193	7.1177251718978525	2987043
2987472	SE	achieving target-system independence in event visualisation	1995	5.2918607529102735	7.15354347739512	2987499
2987977	Logic	temporal logic and applications-a tutorial	1992	5.314372227751961	7.234948229031584	2988004
2988173	SE	translating formal software specifications to natural language	2005	5.8311502187400945	6.647113033924818	2988200
2988520	PL	variant path types for scalable extensibility	2007	4.664454841059175	7.414481397428024	2988547
2988588	Logic	a system for reasoning within and about algebraic specifications	1982	4.830511001041028	6.587855281081058	2988615
2988680	PL	the quick check pre-unification filter for typed grammars: further advances	2004	5.319279086005453	6.115854188420452	2988707
2989022	PL	graph translation schemes to generate compiler parts	1987	5.063618640622507	7.2007577280051285	2989049
2989340	PL	oolong: an extensible concurrent object calculus	2018	5.434998754092411	7.240299785274629	2989367
2990153	AI	constraint based automatic construction and manipulation of geometric figures	1993	4.546097871436022	6.358762916132773	2990180
2990408	PL	tools for the implementation of argumentation models	2013	5.032739828867745	6.4559377177493715	2990435
2990409	PL	access graphs: another view on static access control for a better understanding and use	2002	5.971221129745584	7.205331760916808	2990436
2990849	HPC	system development for parallel cellular automata and its applications	1999	6.267557483020967	5.5740295591564575	2990876
2991397	Logic	generating readable proofs: a heuristic approach to theorem proving with spider diagrams	2004	4.388607263772303	6.038448239566961	2991424
2991520	PL	syntax diagrams for iso pascal standard	1982	5.608776287211867	6.463266635563325	2991547
2992681	PL	design and organization of a translator for a partial differential equation language	1970	5.402942783948626	6.61093517190934	2992708
2992801	PL	object-oriented programming and protected objects in ada 95	2000	6.193246034355884	7.158829653040447	2992828
2993141	PL	implementation of a modelica compiler using jastadd attribute grammars	2010	6.1412564226820345	7.426529752976153	2993168
2993662	ML	program synthesis as a generative method	2017	5.320039792864754	6.7622025152274166	2993689
2994029	EDA	algorithm specification in a very high level language	1987	6.269341596428824	6.7392688033397175	2994056
2994177	Logic	optimization of boolean expressions-historical developments	1980	4.42164494555538	6.4169561126045735	2994204
2994388	Arch	"""""""simple i/o"""" mad statements"""	1964	4.479537659923847	6.777610765350201	2994415
2994458	PL	adding constraint handling rules to curry	2006	4.874209263396994	7.005109980194376	2994485
2995530	SE	an experiment in high level language microprogramming and verification	1981	5.8615569801491425	7.248189774525014	2995557
2995810	SE	compiler testing using a sentence generator	1980	4.989873835663395	6.754685771055324	2995837
2995943	Theory	migrating from pascal to c++	1997	4.776749574694779	6.970745354121737	2995970
2996506	AI	verbalization of high-level formal proofs	1999	4.6064345350753975	5.972387216647706	2996533
2997582	PL	abstract data types and the development of data structures	1976	5.037596166295954	6.66142833302975	2997609
2997631	DB	a logic-based transformation system	1998	5.7923729626457074	5.69294035483914	2997658
2997928	SE	a reverse engineering process for design level document production from ada code	1993	5.5533800274031915	6.9565314265921785	2997955
2998873	EDA	distributed asm - pitfalls and solutions	2014	5.528998833126705	7.207954718026148	2998900
2999381	Logic	a measure of program complexity	1984	5.138978601905633	6.644463075862782	2999408
2999516	AI	lambda machine overview	1982	5.609091125207104	6.0401900610241785	2999543
2999587	SE	effective pattern matching of source code using abstract syntax patterns	2006	5.825699356574197	7.005922411640697	2999614
2999866	Robotics	array-structured object types for mathematical programming	2006	4.460369436106854	6.990619809283083	2999893
2999994	Logic	verifiable compilation of input-output automata without global synchronization	2005	4.8721431237019095	6.058845207209517	3000021
3000109	Security	the pitfalls of protocol design: attempting to write a formally verified pdf parser	2014	4.775004460807399	7.352138746637709	3000136
3000645	PL	trees - a cs2 programming project which introduces a data type using procedural and data abstraction	1987	5.997245124758866	6.557420131809478	3000672
3000875	PL	unembedding domain-specific languages	2009	4.550160958370661	7.037350830742657	3000902
3001430	Robotics	software pipelining: petri net pacemaker	1993	5.432523649408323	5.54477173324629	3001457
3001849	PL	reimagining literate programming	2009	6.0783935262511655	6.412440365098437	3001876
3002555	Visualization	prolog to the section on hardware/software codesign	2012	5.630323555200063	5.901213365471702	3002582
3002925	Logic	language to specify syntax-guided synthesis problems	2014	5.078586461599089	6.252057954895758	3002952
3003049	PL	the use of cobol subroutines in fortran main programs	1965	5.6318892782487255	6.483732264585331	3003076
3003166	PL	on the role of memory in object-based and object-oriented languages	1995	5.549270422787921	7.2510016010615965	3003193
3003196	Robotics	a formally verified geometric modelling core	2006	6.068895844606703	7.127313003619466	3003223
3003346	HPC	netform and code optimizer manual	1981	4.98320623141614	6.2778924836455925	3003373
3004141	ML	unifying theories for parallel programming	1997	4.405093293457892	6.102644154320142	3004168
3005990	Robotics	applying a software framework for supervisory control of a plc-based discrete event system	2009	6.2659048714773515	5.607141723531102	3006017
3006008	PL	a statistical analysis of syntax errors	1978	5.587786829062653	6.5503191528859475	3006035
3006080	Robotics	modularity and rule-based programming	1995	5.79902603378925	6.7477344202261325	3006107
3006170	PL	the formalization and implementation of adaptable parsing expression grammars	2014	5.514281363486145	6.861309967531505	3006197
3006737	PL	a convention for explicit declaration of environments and top-down refinement of data	1979	4.462123284148436	6.935953082828183	3006764
3006755	AI	building modular ontologies and specifying ontology joining, binding, localizing and programming interfaces in ontologies implemented in owl	2008	6.303481610994193	6.617452512393289	3006782
3006759	PL	the use of fortran in subroutines with cobol main programs	1965	5.409158381182007	6.933292189699428	3006786
3006838	EDA	answer set programming: language, applications and development tools	2013	5.351329038613239	5.905781027542746	3006865
3007994	Logic	semantics for rule-based programs that express non-determinism, causality and exception handling behavior	1992	4.452936539802177	6.0975766434376135	3008021
3008025	PL	tinycals: step by step tacticals	2007	4.4928689309997845	7.076130151910808	3008052
3008095	PL	compiling a functional language	1984	5.108145426024375	6.816172446479772	3008122
3008484	Logic	an industrial application of modal process logic	1997	5.892153533624567	7.373369526930577	3008511
3008485	DB	fortran: a space odyssey	2001	5.87373308785772	6.348945128783088	3008512
3008878	PL	the inside story on shared libraries and dynamic loading	2001	5.384939069438173	6.850258265500366	3008905
3009026	Graphics	format effectors in iso7 and ascii	1967	4.850111668741418	6.128832934851048	3009053
3011478	PL	using the eclipse c/c++ development tooling as a robust, fully functional, actively maintained, open source c++ parser	2012	5.982641355383568	7.342020744045106	3011505
3011665	Theory	predicting optimal and-parallelism at compile time	1993	4.8423687473677175	5.546683935181707	3011692
3011860	PL	algorithm 871: a c/c++ precompiler for autogeneration of multiprecision programs	2008	5.8444202064473725	6.621751683061995	3011887
3012106	Logic	branch testing of concurrent programs using petri net models	1990	5.1489954991388185	5.801554483848282	3012133
3012293	HPC	automatic generation of mpi derived datatypes from c datatypes with mpipp	2006	5.603322393411969	6.057499826101516	3012320
3012975	PL	a module system for scheme	1990	5.585247766466424	6.888023619406222	3013002
3013073	NLP	a comparison of the ansi and iso pascal word standards	1985	5.872060305069452	6.076900793861027	3013100
3013145	SE	combining subsumption and binary methods: an object calculus with views	2001	5.206357748216786	6.713744184734187	3013172
3014334	PL	the ell(1) parser generator and the error recovery mechanism	1978	4.863122492887523	6.377935115016228	3014361
3014906	PL	a new method for dependent parsing	2011	4.989092081992454	6.960368677209287	3014933
3017838	PL	efficiency by incrementalization: an introduction	2000	4.8018499947496585	6.7646498806623825	3017865
3017872	PL	object inheritance without classes	2016	5.0711657173258375	7.246087549789361	3017899
3018228	PL	interfacing coq + ssreflect with gap	2012	4.943821854679445	7.076615477744031	3018255
3018954	PL	term rewriting for sale	1998	5.365883050511509	6.689691221923928	3018981
3018978	OS	mostly reuse: another code sharing option	1997	6.2627851058664366	6.1647321195659845	3019005
3019008	PL	improving the output of the fortran to c translator, f2c	1995	5.665058234920553	6.474609991069197	3019035
3019236	NLP	action generator based on primitive actions and individual properties	2009	6.284261481307354	6.527415556268276	3019263
3019242	HPC	music analysis and modeling through petri nets	2005	5.895731654483765	6.798220302144902	3019269
3019801	Logic	verifying programs that manipulate pointers: (invited talk)	2004	4.703208254462727	6.323057896158326	3019828
3020092	SE	design considerations in language processing tools for ada	1982	6.0397421774497	6.988991612122886	3020119
3020944	SE	a software engineering approach to constraint programming systems	2002	5.666227662506123	6.489842613604718	3020971
3020974	AI	from zinc to design model	2007	5.74269054684923	6.655529826584416	3021001
3021143	PL	teaching recursion using fractals in prolog	1988	5.833436620560661	6.2754177958065736	3021170
3021152	PL	spatial aggregation: language and applications	1996	4.9786707029745685	6.265597627035585	3021179
3021156	PL	supporting sell for high-performance computing	2005	5.315499025360996	7.243743062081184	3021183
3021164	NLP	'if you've heard it, you can say it': towards an account of expressibility	2010	5.898048596222985	6.219570515859803	3021191
3022369	EDA	equivalence-checking with infinite-state systems: techniques and results	2002	4.9182488521418275	6.432019320735946	3022396
3022541	PL	efficient reasoning about executable specifications in coq	2002	4.4762887174109816	7.352362969508309	3022568
3024504	PL	formalization in programming environments	1987	6.018221376564504	6.1423453080257495	3024531
3024572	EDA	stochastic generation of discrete-event simulation models	2008	6.287620572646088	5.724051416138584	3024599
3024623	AI	neater2: a pl/i source statement reformatter	1970	6.174162003390857	6.1537686543664885	3024650
3024697	NLP	kadmos: a clausal language for cad modeling systems with morphological constraints	1990	4.775822808766869	5.9388753901612885	3024724
3026816	PL	haskell 98: modules	2003	5.243188608111793	6.863248431695047	3026843
3027263	PL	programming with patterns	2000	6.129118596582696	7.280816761824818	3027290
3027571	ML	x-machines and the halting problem: building a super-turing machine	1990	4.409862685312087	6.1713315033594265	3027598
3027874	PL	a basic compiler for arithmetic expressions	1961	4.965965938234684	6.5482625679017366	3027901
3027898	PL	parental inheritance	2005	5.228079877926771	6.6355151801131775	3027925
3028106	SE	design and specification of the minimal subset of an operating system family	1976	6.242318701292807	6.4064029150421975	3028133
3029252	PL	the definition and implementation of a computer programming language based on constraints	1980	5.238553189261318	6.6569218162342025	3029279
3030279	Graphics	advanced procedural modeling of architecture	2015	5.683209054503009	6.735500726660408	3030306
3030367	SE	a comparison of role mechanisms in object-oriented modeling	1998	5.8370820031868265	5.706349418105622	3030394
3030489	SE	theme-based literate programming	2002	6.132650439213332	6.565072640148988	3030516
3030769	PL	production trees: a compact representation of parsed programs	1990	4.441441780266696	6.513934035632541	3030796
3031683	SE	parser development with an internal domain-specific language and an aspect weaver	2014	5.7943736632241905	7.281205790994557	3031710
3031695	AI	putting theories together to make specifications	1977	4.515149092688934	6.280477969794395	3031722
3031965	OS	merging control-flow and data-flow descriptions of structured systems in a unique notation	1975	5.8919671476863655	6.016572522041633	3031992
3032673	PL	mp users guide	2010	5.421014442068009	6.578742953447418	3032700
3032674	PL	backtracking and dynamic patching for free	2005	5.8692964803987975	7.126870240605337	3032701
3033008	DB	lectures on reduce and maple at uam i - mexico	1999	5.306313895354097	6.106889925348906	3033035
3033633	Logic	a framework for symbolic simulation of hybrid systems in constraint logic programming	1995	4.467805294515965	6.25023201339704	3033660
3035862	PL	can object-oriented databases be statically typed?	1989	5.664462712405636	6.443846964744075	3035889
3036329	Robotics	self-assembling graphs	2006	4.839520219163068	5.606018119350356	3036356
3037498	PL	attribute grammars in erlang	2015	5.372386414421951	6.836201402484339	3037525
3037634	DB	using fuzzy petri nets for static analysis of rule-bases	2004	5.123693450649972	5.68203806839466	3037661
3037713	HPC	algebraic specification and automatic generation of compilers	1992	5.3317922419448	7.255231742590227	3037740
3038771	PL	modeling dynamic collections of interdependent objects using path-based rules	1997	6.0317992158918985	6.850217704563006	3038798
3039111	Graphics	a high-level language for specifying pictures	1982	5.0392176672830145	6.285090514147166	3039138
3039662	PL	class-is-type is inadequate for object reuse	2001	4.8160006696400055	6.237711198720423	3039689
3039905	PL	algorithms policy	1975	5.10857535516232	6.3973411358695484	3039932
3040626	AI	object-oriented benet programming for data-focused bottom-up design of autonomous agents	1999	6.097619225143408	6.2037349007973575	3040653
3040717	NLP	using the isabelle ontology framework - linking the formal with the informal	2018	5.430696592630882	7.425770920258856	3040744
3040873	AI	"""a technique for micro-simulation the software """"machine"""""""	1972	5.770007921380772	5.847677033779534	3040900
3041185	Theory	analysis of internal computer sorting	1961	5.4134209715834585	5.717337142171176	3041212
3041890	DB	computational models for declarative languages and their formal specifications in csp	1986	4.876125196618188	5.695594446442173	3041917
3042001	DB	temporal petri nets model of concurrent systems	2002	5.231793064258367	5.693952652068668	3042028
3042269	DB	concurrent web-programming in clp(web)	2000	5.892388564860708	7.162577472580702	3042296
3042422	Logic	runtime verification and debugging of concurrent software	2016	5.879960531949417	5.85135454347504	3042449
3042518	PL	the cyan language	2013	5.234999377509996	7.154026647530509	3042545
3042566	HCI	csp2b: a practical approach to combining csp and b	1999	5.238040475051858	7.01852567253888	3042593
3042999	PL	a gentle introduction to formal verification of computer systems by abstract interpretation	2010	4.788034083355809	6.451253400906374	3043026
3043207	Logic	maude's module algebra	2007	5.629707360257555	7.373592599380743	3043234
3043727	PL	defining and measuring the productivity of programming languages	2004	6.133069351561358	6.903705842368594	3043754
3044103	NLP	knowledge representation using a modified earley's algorithm	2004	4.909808352529282	6.606863086791793	3044130
3044977	PL	what is new in cocoalib and cocoa-5?	2015	5.769222089976423	6.422655125731003	3045004
3045254	PL	conservative pretty printing	1997	4.835744220499486	6.391123746632916	3045281
3045381	DB	language-integrated query with ordering, grouping and outer joins (poster paper)	2017	4.737635419210807	7.322528904320767	3045408
3045388	PL	system support for modular order-sorted horn clause specifications	1990	4.626710017524843	6.869883071994344	3045415
3045638	PL	three patterns of data type composition in programming languages	2018	5.5966846619073864	6.865340678523557	3045665
3045705	PL	using llvm for a functional programming language implementation	2011	5.610389880001757	5.913903039694043	3045732
3047194	PL	mysql4ocl: a stored procedure-based mysql code generator for ocl	2010	5.194840014144837	7.193273419584807	3047221
3047339	OS	asistint: an interactive asis interpreter	1997	6.168148704316554	6.477739278817318	3047366
3047430	PL	an efficient insertion-only error-corrector for ll(1) parsers	1977	4.674898829786357	6.4785663149925625	3047457
3047787	PL	functional programming at work in object-oriented programming	2009	5.493109452139929	7.279629068586275	3047814
3047893	SE	a transformational viewpoint on design patterns	2000	4.867316910088221	6.168041598783907	3047920
3047945	SE	modula-2 an alternative to c?	1992	5.800670618474031	6.254695068735014	3047972
3048662	PL	a tutorial on algol 68	1976	5.0064953389943305	6.397993992223265	3048689
3050137	DB	a source-to-source meta-translation system for database query languages - implementation in prolog	1988	5.163990616503935	5.8232817587363535	3050164
3050224	Logic	a toolset for the symbolic examination of finite state transition systems	2000	5.2704816327518795	6.964834203258581	3050251
3050251	AI	model checking knowledge and commitments in multi-agent systems using actors and uppaal	2018	5.646400929902697	6.49263341815438	3050278
3050837	PL	a geometric semantics for program representation in the polytope model	1999	4.815727140680225	5.758555167688856	3050864
3051477	PL	letters to the editor: on syntax specification	1965	4.551053621973317	6.413135102462486	3051504
3052080	DB	natural semantics	1987	4.941357568278517	6.022135645077999	3052107
3052239	Logic	a formal model for the dynamics of compositional reasoning systems	1994	5.604643190929848	5.911831936793124	3052266
3052251	PL	lessons from a bibliography program's reimplementation	2002	5.631704062535525	6.2289685023953805	3052278
3053081	DB	a semantical and implementative comparison of file sharing peer-to-peer applications	2002	5.022898729665519	6.366465525076414	3053108
3053673	Theory	some proposals for improving pascal	1983	4.7308107531572565	6.595375420783851	3053700
3054041	EDA	object-oriented programming	1988	5.906069160435638	6.154813431114111	3054068
3055214	PL	the transfer of a bcpl compiler to the z80 microcomputer	1982	5.994945401146432	6.572564153068737	3055241
3055308	AI	a model for computerized procedures based on flowcharts and success logic trees	2004	5.87643276628881	6.29209271033543	3055335
3056010	Robotics	new results on testing modularity of local supervisors using abstractions	2006	5.785991353450794	6.144779885739063	3056037
3056264	ML	meta-level definition and compilation of inference engines in the epsilon logic programming environment	1988	4.8668116701870305	5.908700128686612	3056291
3056438	PL	automatic derivation of compiler machine descriptions	2002	5.9322376350834	7.199451776928832	3056465
3056450	AI	the recognition strategy language	2005	5.317596183985416	6.439962716833294	3056477
3056596	PL	a note on the speed of prolog	1988	5.203979771207127	6.986348409401517	3056623
3057862	PL	object-oriented extension of attribute grammars and its implementation using distributed attribute evaluation algorithm	1990	5.836066158216384	7.185949846912448	3057889
3057934	PL	a polymorphic library for constructive solid geometry	1995	5.5951491912158025	6.479272936004609	3057961
3058391	DB	logical difference and module extraction with cex and mex	2008	4.965692901714197	6.011495655270639	3058418
3058649	PL	adding overloading to java type inference	2015	5.14478481393208	6.03767364709788	3058676
3058688	PL	c to java: converting pointers into references	1998	5.156822573520513	7.382172594283802	3058715
3058731	PL	binary methods programming: the clos perspective	2008	5.19796830817887	7.220738488934038	3058758
3058839	PL	gold: a graph oriented language implemented using the eclipse xtext framework	2015	6.170986513994763	7.156570832923918	3058866
3059428	SE	an alternative to the graham-glanville code-generation method	1987	6.063041761756389	6.070149388384336	3059455
3059810	PL	towards static type checking for xslt	2001	5.20772524882693	6.663295174174652	3059837
3060080	PL	start: a linguistic reflection tool using hyper-program technology	1994	5.446015093855309	7.139846915182699	3060107
3060103	PL	a method of syntax specification	1964	4.703570669187583	6.3522301060957576	3060130
3060572	SE	formal program development with approximations	2005	6.007326346390967	7.439733515891574	3060599
3060590	PL	poor man's genericity for java	1998	5.059094161751164	7.392649799662838	3060617
3060783	PL	a calculus with partially dynamic records for typeful manipulation of json objects	2016	5.587915635899098	7.005321470429427	3060810
3061120	PL	multi-language synchronization	2007	6.160730892292158	7.241048384293545	3061147
3061322	EDA	09361 abstracts collection - design and validation of concurrent systems	2009	5.3550586629306105	5.600279540443362	3061349
3061339	DB	graphical user interface for search of mathematical expressions with regular expressions	2015	5.2668610711950725	6.018442480522287	3061366
3061415	PL	quafl: a typed dsl for quantum programming	2013	4.591556160499387	7.448197654499839	3061442
3061533	PL	the implementation of generators and goal-directed evaluation in icon	1983	6.031375434432746	5.852182216695451	3061560
3061792	HCI	methods as parameters: a preprocessing approach to higher order in java	2008	5.030565596308468	7.148177943283247	3061819
3061846	PL	higher order messaging	2005	5.136290110324297	7.237482197208805	3061873
3062109	PL	p-patr: a compiler for unification-based grammars	1987	5.378660926776641	6.749896528998264	3062136
3063489	PL	implementing the extended return statement for ada 2005	2008	5.275501786137701	7.08317107431478	3063516
3064724	PL	multiple programming data processing	1961	5.045338831042469	6.621824936059282	3064751
3065513	PL	should high level languages be used to write systems software?	1975	5.632568729619491	6.916275909262175	3065540
3066024	SE	abstract data types	2008	5.408928605530229	6.314536178807413	3066051
3066125	Robotics	uses of c-gpaphs in a prototype for altomatic twislation	1984	4.851162243037787	6.416189099530121	3066152
3066242	Theory	correctness of object oriented models by extended type inference	2012	5.664980149329533	6.320212574657721	3066269
3066540	PL	report on the 7th annual maple workshop	1990	5.73639220545996	6.196562862246995	3066567
3067338	ML	a proof system for distributed processes	1988	4.819769549704019	5.9691258575765715	3067365
3067376	Logic	formalization and implementation of algebraic methods in geometry	2011	4.551979207831306	6.5343638825282415	3067403
3067920	PL	abstract data type support in prolog and its relation to parallelism	1994	4.871745342998657	6.086010846307921	3067947
3068410	PL	a visual environment for developing context-sensitive term rewriting systems	2004	5.906101973467659	7.376012369343162	3068437
3068709	NLP	brand x: lisp support for semantic networks	1981	5.234709000536082	6.184885115656126	3068736
3068944	SE	programmers use slices when debugging	1982	5.942569902143705	6.809440093135039	3068971
3070072	ML	april: a flexible production rule interpreter	1977	5.315850267081046	6.186151458292807	3070099
3070255	PL	the cartesian product algorithm: simple and precise type inference of parametric polymorphism	1995	4.6807963740350536	7.430831575738792	3070282
3070723	EDA	spcheck: a specification-based tool for interface checking of large, real-time/distributed systems	1989	5.781140169806385	5.612400754851742	3070750
3070956	PL	an introduction to function rank	1987	4.943473615967324	5.735322672218005	3070983
3071225	NLP	a context-free syntax of algol 68	1972	4.446344026664362	6.39782884217157	3071252
3071394	Theory	illustrating the interaction of algorithms and data structures using the matching problem	2015	4.936928038627356	5.553796295501209	3071421
3071447	AI	answer set programming and declarative problem solving in game ais	2013	4.528840853712203	5.921196966738421	3071474
3071888	PL	an object language versus an expert system shell: the school time-table example	1992	6.097476839689122	6.19580632954287	3071915
3072039	PL	a concurrent object-oriented knowledge representation language orient84/k: its features and implementation	1986	5.6013176613904765	7.0208918006438505	3072066
3072269	PL	practical lr error recovery	1979	4.679675069729506	6.310476852073928	3072296
3072285	PL	design highlights of cabal: a compiler-compiler	1968	5.6087342090527095	6.301397965144551	3072312
3072381	Robotics	specification of the structure and behaviours of a robotic system able to determine object convexity	2013	6.051566233295548	5.829798007226503	3072408
3072566	PL	on program transformation in the glasgow haskell compiler	1992	4.5706813878265855	7.224855597948066	3072593
3073074	Logic	a note on the verification of automata specifications of probabilistic real-time systems	2002	5.076262607489996	5.792176433225262	3073101
3073596	PL	integrating attribute grammar and functional programming language features	2011	4.762942492205137	6.882294494694534	3073623
3074477	Embedded	graphical hybrid automata with simulink and stateflow	2018	6.127320943566924	6.5661541784231074	3074504
3074917	PL	some aspects of parsing expression grammar	2008	4.383346022991396	6.403406231195871	3074944
3075357	PL	an interface for user-defined functions in a database application	2002	5.72413591569586	6.521249020583642	3075384
3075506	PL	dyna: toward a self-optimizing declarative language for machine learning applications	2017	4.4159663480565285	5.991367577172195	3075533
3076054	PL	interpreters from functions and grammars	1986	5.056016340566684	7.40434401217546	3076081
3076189	SE	a utility for showing program integrated information changes between versions in a translation verification test	2008	4.892863143328173	6.465355923250664	3076216
3076485	PL	program generator for rs-232c instruments	1996	6.112159593103378	6.210572354670828	3076512
3076667	SE	model checking of software design in state transition matrix	2010	6.119181490892792	5.921384962506488	3076694
3076767	DB	the priority of rules and the termination analysis using petri nets	2007	5.81064549464213	5.6894381846489965	3076794
3076820	HPC	visual data-parallel programming for signal processing applications	2001	5.2495871750696015	6.591756094563688	3076847
3076910	PL	graphical and incremental type inference. a graph transformation approach	2013	4.437372917234792	7.2041712099147714	3076937
3077144	NLP	recognising and generating terms using derivatives of parsing expression grammars	2018	4.7582747944171295	6.2689179621349655	3077171
3077630	DB	high-level database programming in curry	2008	5.798931204439286	6.032743073586339	3077657
3077929	SE	conditional statements and program coding: an experimental evaluation	1984	4.557242003396508	6.297023340945311	3077956
3078649	PL	parsers and printers as stream destructors and constructors embedded in functional languages	1989	5.150100100784616	6.250478237373322	3078676
3079873	Vision	sss: subrouting set for experimenting in simulation research	1994	5.887838900763918	5.712972587849481	3079900
3080640	SE	towards a system model for ensembles	2011	6.220122009838864	7.171218266782468	3080667
3080755	SE	a formalism to automate mapping from program features to code	2000	4.825521163126734	7.370135849283741	3080782
3080935	EDA	an abstract, reusable, and extensible programming language design architecture	2013	4.410840592818885	6.9252654915406895	3080962
3081609	HPC	network parallel computing with a command interpreter	1992	5.631155127873174	5.574868929296111	3081636
3082299	PL	rewriting strategies in java	2008	4.72144744764893	7.210305170633028	3082326
3082601	PL	the comparative programming languages course: a new chain of development	2002	5.672596889342724	6.803507182005882	3082628
3082943	PL	quect: a new quantum programming paradigm	2011	5.574721299498505	6.617440782005408	3082970
3083330	PL	a flexible and efficient ml lexer tool based on extended regular expression submatching	2014	4.535268267239934	6.816857278669093	3083357
3083519	HCI	gnu emacs: unix text editing and programming	1991	5.637584386146057	6.312632693135897	3083546
3084542	PL	an implementation inheritance model for object-oriented programming	1993	5.140994582563678	7.399344030592207	3084569
3085719	PL	programming paradigms for reconfigurable computing	2005	5.959911041292807	7.333809256478803	3085746
3086655	PL	an implementation of a hygienic syntactic macro system for javascript: a preliminary report	2010	5.2089515220446465	7.317827456339282	3086682
3086817	PL	an extension of the interpreter pattern to define domain-parametric rewriting systems	2013	4.697908897903963	7.412878671669196	3086844
3087091	PL	increased productivity using a preprocessor for dataflex fourth generation database language (abstract)	1990	5.931400570878734	6.301694793377337	3087118
3087099	Logic	a framework for assertion-based timing verification and pc-based restbus simulation of automotive systems	2015	6.021126056382181	5.618062343181332	3087126
3087157	SE	functional approach to mathematical model of naming	1992	5.890963099086303	5.898856076377539	3087184
3087445	PL	cobol and compatability	1962	5.308724074965834	6.434144711928831	3087472
3087622	EDA	a 6502 macro assembler in forth	1983	6.055177602764615	6.002455432515112	3087649
3087707	PL	a meta-language and system for nonlocal incremental attribute evaluation in language-based editors	1985	5.5052294499362615	6.875365680588946	3087734
3087856	PL	semantics of programming languages: using asf+sdf	2015	6.2811835762829675	6.922970747094128	3087883
3087872	PL	linguistic foundations for bidirectional transformations: invited tutorial	2012	4.86337560235032	6.3336134794777905	3087899
3088015	SE	theory of modules	1987	5.2630677862468795	7.41041630186522	3088042
3088099	Security	chimeric ledgers: translating and unifying utxo-based and account-based cryptocurrencies.	2018	4.487265834056828	7.225919523553588	3088126
3088291	Robotics	real theorem provers deserve real user-interfaces	1992	5.99292572654458	6.322552374203119	3088318
3088721	NLP	ultimate taipan with dynamic block encoding - (competition contribution)	2018	4.514656208728904	6.562690079478388	3088748
3088939	PL	rings: an efficient java/scala library for polynomial rings	2019	4.4215835210518115	6.973494231511311	3088966
3089207	Logic	manipulation multilinked data structures in a pure functional language	1990	4.7694812018665464	5.536547153185972	3089234
3090611	Theory	algorithms and data structures	2017	5.320405830202778	5.8808593117173045	3090638
3090728	PL	mixin modules	1996	4.404049193055703	7.441133278199812	3090755
3090903	AI	resource adaptive agents in interactive theorem proving	1999	5.890987337078593	5.889123788260572	3090930
3091311	DB	dynamic space-sharing in computer systems	1969	5.994871363142753	5.554691047819962	3091338
3091896	PL	abstract data types, program schema, and programming environments	1986	5.999376565596561	5.709369940447901	3091923
3091990	AI	experimenting with robotic intra-logistics domains	2018	5.522785316439667	6.6070070759737405	3092017
3092978	DB	theseus - a programming language for relational databases	1979	5.4284773195800975	6.343834221871883	3093005
3093261	Logic	priced timed automata: theory and tools	2009	4.534021497876448	5.8511033972878375	3093288
3094168	Logic	report on the ucd microcoded viper verification project	1993	5.577193004946999	7.4430726768233315	3094195
3094281	Security	a coq formalisation of sql’s execution engines	2018	4.602202148482429	7.103593605315077	3094308
3094327	AI	behavioural state machines: programming modular agents.	2008	6.084870499918801	7.088903921815787	3094354
3094359	PL	predicate collection classes	2017	4.464514546944794	6.507655475073589	3094386
3094497	AI	control abstractions in modula-2: a case study using advanced backtracking	1994	5.3782847950889225	5.621805624293102	3094524
3094684	PL	polytypic syntax tree operations	2005	4.706187083124031	7.261890843460012	3094711
3095019	PL	where is the evidence against arrays and pointers?	1992	5.429583712832825	7.164317085355841	3095046
3095654	HCI	flexible skeletal programming with eskel	2005	5.994848198857971	6.322356415687566	3095681
3095829	Logic	web services, formal methods, and behavioral types	2014	5.73433913673624	5.842144579102405	3095856
3096156	PL	a tiny portable language-independent macroprocessor and some applications	1981	5.5240240657208695	7.0027914034010355	3096183
3096255	SE	do sat solvers make good configurators?	2008	5.270599330801174	5.806556624652155	3096282
3097052	PL	a formal design for softare	1975	5.276909631158133	6.865295149339144	3097079
3097146	DB	declarative rules for inferring fine-grained data provenance from scientific workflow execution traces	2012	5.984836732741302	6.802759412686707	3097173
3097387	SE	the causes and effects of infeasible paths in computer programs	1985	6.140164620599915	7.418971078799772	3097414
3097574	PL	adding performance information to adt interfaces	1994	5.022848482054365	7.3857331210458215	3097601
3097714	PL	static computation of standard linear algebra subroutines for ptah	1993	5.384926214845293	5.768317631704467	3097741
3098433	PL	an efficient, parametric fixpoint algorithm for analysis of java bytecode	2007	4.814042522958889	7.218986180260313	3098460
3099421	PL	a new practicum in compiler construction	2014	5.904337254649652	6.666673053204278	3099448
3099829	Theory	an automatic parallelization framework for openaxiom	2011	4.608942588974703	6.827346739194153	3099856
3099861	PL	schrödinger's token	2001	5.457297722410898	6.840480543644952	3099888
3101030	AI	a logical characterization of adaptive educational hypermedia	2004	4.50893431559817	5.5390206596784175	3101057
3101543	PL	gpss - finding the appropriate world-view	1981	5.165828028365215	6.716862938382662	3101570
3101702	PL	implementation aspects	2010	5.469760988072267	6.487482175177273	3101729
3102202	PL	1998 symposium on partial evaluation	1998	4.700653741001469	7.198008688551668	3102229
3103084	PL	implementation of a highly portable pascal interpreter using indirect threaded code techniques	1987	5.805145835554939	5.5340770015131	3103111
3103972	Robotics	experimental object- level strategic control with cooperating manipulators	1993	6.131072964477372	5.758263989764784	3103999
3104998	PL	towards a middle road methodology for writing code generators	1988	6.097300157382923	5.8136585543255315	3105025
3106074	SE	the use of a domain model in understanding informal process descriptions	1977	5.941352164039925	6.989291142639159	3106101
3106951	Robotics	funk2: a distributed processing language for reflective tracing of a large critic-selector cognitive architecture	2010	5.614911117228474	5.914939176064631	3106978
3107391	Logic	a verification oriented specification in lotos of the transport protocol	1987	6.063788386238967	6.09818744260792	3107418
3107916	PL	how not to write fortran in any language	2004	5.751972148174508	5.6598423683754495	3107943
3107990	PL	a memory management machine for prolog interpreter	1984	5.074703967117069	6.095230051840013	3108017
3108511	PL	object-oriented genetic programming: an initial implementation.	2003	5.783923178501411	7.209162346782144	3108538
3108637	PL	solving the ttc java refactoring case with funnyqt	2015	5.879961513689513	7.152234224806661	3108664
3109086	SE	beyond prolog: software specification by grammar	1982	5.607277557252594	7.071762902427347	3109113
3109495	PL	transformation of an intractable problem into a tractable problem: evaluation of a determinant in several variables	1982	5.2044944188309055	5.951499273703287	3109522
3109735	Robotics	attributed state machines for behavior specification of reactive systems.	1993	5.765825012087968	6.5003008083498495	3109762
3109755	PL	walk your tree any way you want	2013	4.598699939251742	6.562076332054068	3109782
3109777	Graphics	function + action = interaction	2014	4.4410721400923086	6.087879190094804	3109804
3110341	PL	snobol, a string manipulation language	1964	5.104575069500895	6.571875517334057	3110368
3110485	AI	multiple attribute grammar inheritance	2000	6.036896207124702	7.31518762203266	3110512
3111600	OS	apu: an automatic programmer for unix	1990	5.927286428836447	5.93530146293099	3111627
3112654	Logic	planning as model checking	1999	5.255266299177934	5.710299213252215	3112681
3112693	DB	a unified framework for database specification: functional approach	1992	5.728045226735189	7.0736621323173425	3112720
3113118	PL	clos: integrating object-oriented and functional programming	1991	5.261574653914008	7.0262943576822	3113145
3113260	SE	program graphs and execution behavior	1983	4.673036999215888	7.010580789892188	3113287
3113274	SE	program generalization for software reuse: from c to c++	1996	4.747961256322598	6.603737523605268	3113301
3113350	SE	pyomo: modeling and solving mathematical programs in python	2011	5.111047044063215	6.198719707684015	3113377
3113480	Logic	satisfiability checking and symbolic computation	2016	4.7986779065538325	5.958127720583353	3113507
3113783	Logic	dynamically discovering likely interface invariants	2006	5.720050711912563	5.801612084913257	3113810
3114745	SE	polymorphism, persistence and software re-use in a strongly typed object-oriented environment	1987	5.9680857915897025	7.412813636758378	3114772
3114967	Web+IR	porting apl-programs via ascii-transliteration	1992	5.8823860637367895	6.424190087413408	3114994
3115580	SE	doubts about the positive impact of static type systems on programming tasks in single developer projects - an empirical study	2010	5.731474324144879	6.9025460585172365	3115607
3116167	DB	xquery on sql hosts	2004	4.6067803795554605	7.429356966028322	3116194
3116594	PL	a taxonomy of errors for information systems	2013	5.273258936310183	5.573984592379485	3116621
3116840	NLP	automatic oo parser generation using visitors for ada 2005	2006	5.615611104682498	6.507368192813803	3116867
3117516	DB	pet – a platform for experimentation with efficient hpsg processing techniques	2000	5.727860885040642	5.816263464859367	3117543
3117714	Logic	efficient storage management for functional languages	1982	5.1844863418488485	5.589083634940307	3117741
3118125	PL	eliminating impedance mismatch in c++	2007	5.933014128469387	6.83305137137908	3118152
3118195	PL	natural semantics-directed generation of compilers and abstract machines	1996	4.917462868753304	7.101840945855634	3118222
3118442	PL	object-oriented simulation - ada, c++, simula	1986	4.9158147084611885	7.114915345077264	3118469
3118444	PL	forest: a language and toolkit for programming with filestores	2011	5.080909777868265	7.1880354030932665	3118471
3120281	SE	semi-automatic program construction from specifications using library modules	1991	5.649082999263384	7.067371629955226	3120308
3120509	Logic	a user guide to hytech	1995	5.516250712549472	6.653846637953531	3120536
3121310	SE	reusing software developments	1990	4.553840278029204	7.2141336200991475	3121337
3121482	PL	top down operator precedence	1973	4.725300628748663	6.244974750111123	3121509
3121926	NLP	executable lotos: using parlog to implement an fdt	1987	5.7237448773803346	6.267638083139262	3121953
3122567	DB	modelling the connection machine 2 as an emulator of subset-based declarative languages.	1994	5.373010407492237	5.793799082146539	3122594
3122626	DB	working with alien objects: an object oriented viewpoint	1995	5.697014600710809	7.370949809968726	3122653
3123064	EDA	occam-an overview	1984	4.7560401015625535	7.377624632725233	3123091
3123214	PL	type-safe programming with owl in semantics4j	2017	5.409234496886548	6.9851408679168925	3123241
3123528	SE	automatic algorithm recognition based on programming schemas	2011	5.312774348600519	6.573231085436957	3123555
3124395	SE	an application of temporal logic for representation and reasoning about design	1992	6.046492904160504	6.963349252297367	3124422
3124986	PL	man machine service embedded in logic programming	1995	5.970859825963137	7.029474140206804	3125013
3125184	Theory	letters to the editor: corrections to sattley paper in january communications	1961	4.7892806122103115	6.439710724424421	3125211
3125350	SE	cobol generation of source programs and reports	1976	5.700138618370374	6.818465590834286	3125377
3126321	PL	optimized compilation of multiset rewriting with comprehensions	2014	4.424564157139648	6.731319791819022	3126348
3126604	AI	towards the integration of functions, relations and types in an ai programming language	1990	5.480533212282748	6.0668412432875725	3126631
3126752	AI	towards more flexible type systems	1974	4.401078748789258	6.2172662186034655	3126779
3127095	PL	projecting programs on specifications: definition and implications	2017	5.333767712827002	5.698841564090178	3127122
3127125	DB	change detection for aggregate objects with aliasing	1997	6.166462974170762	7.219220966010692	3127152
3127776	Robotics	towards advanced programming environments based on algebraic concepts	1986	5.126671227149133	6.7587637174990896	3127803
3128254	PL	type compatibility for extensible module types, their reference parameters, and their pointer types	1997	5.035067041392892	7.294398960187751	3128281
3128748	HPC	pvm code generator for the fortran parallel transformer	1996	5.5009184893508705	5.586946201692236	3128775
3129230	PL	erratic fudgets: a semantic theory for an embedded coordination language	1999	4.616513986668527	6.9143676374365715	3129257
3129509	PL	function references as first class citizens in uml class modeling	2018	5.514416635806336	7.127562779891816	3129536
3129535	Logic	xbarnacle: making theorem provers more accessible	1997	5.344323216425507	6.769921486204478	3129562
3129818	PL	an architectural trail to threaded-code systems	1982	5.4230877922449885	6.9478417760057125	3129845
3130616	AI	evaluation techniques and systems for answer set programming: a survey	2018	4.552656020070595	5.757331926642258	3130643
3131059	NLP	a feature structure algebra for ftag	2017	4.456218687530437	6.2203899980111395	3131086
3131128	PL	"""cedalion 101: """"i want my dsl now"""""""	2011	6.112464567985579	6.902044763650416	3131155
3131867	PL	discussions on an interval arithmetic standard at dagstuhl seminar 08021	2008	5.3333232694850246	6.411980092499832	3131894
3131882	AI	vdl - a definitional system for all levels	1973	4.843277436951462	7.0606794540051565	3131909
3132212	PL	parse tree annotations	1989	5.246075687142358	6.845508949377384	3132239
3132669	AI	re2c: a more versatile scanner generator	1993	5.850714117088074	6.0306634732499464	3132696
3132736	Robotics	automation of merging in erp revision control	2012	6.2953343557767365	6.686008290508537	3132763
3132943	Arch	an interpreter for a nondeterministic language	1980	4.9019929579121975	6.830585705017291	3132970
3133582	PL	is oberon as simple as possible? a smaller object-oriented language based on the concept of module type	1994	5.148366287675056	6.347878411776995	3133609
3133590	PL	programming with ornaments	2016	4.45240272151414	7.274794748483265	3133617
3133742	PL	a list-based virtual machine for cobol	1996	5.378501891426705	6.997962643761343	3133769
3134006	PL	debugging eli-generated compilers with noosa	1999	6.108173746499581	7.393539911060236	3134033
3134008	PL	enhanced structural analysis for c code reconstruction from ir code	2011	5.317892068921217	7.1818991794927065	3134035
3134132	PL	automatic visualization of recursion trees: a case study on generic programming	2003	4.779519993986367	7.087539112747878	3134159
3134333	PL	a plea for pluggable programming language features	2010	6.000040161928818	7.416454544180431	3134360
3134527	PL	executable grammars in newspeak	2007	5.12322292445494	7.204280159428728	3134554
3135931	NLP	a block-based structure editor for the english language	2017	5.377891544853507	6.307325469583818	3135958
3136607	SE	functional specifications of multilevel highway navigation	2000	6.2919707378701935	6.5213909648400845	3136634
3137279	NLP	two-way translators based on attribute grammar inversion	1985	4.497732951496347	6.485756532305611	3137306
3137390	PL	a semantics for context-sensitive reduction semantics	2011	4.585065160231193	7.3595885011442475	3137417
3137441	HPC	compiling optimized code from decision tables	1972	5.966267698944911	5.7842850600408635	3137468
3137893	SE	a classification scheme for software modules	1998	5.675387691354825	6.263671343133396	3137920
3138266	SE	probabilistic testing of protocols	1989	5.66155904836663	6.2264025829242575	3138293
3138514	PL	generation of run-time environments	1986	6.056330234400406	7.3280681057531485	3138541
3138577	SE	graph structured program evolution with automatically defined nodes	2009	4.497327671205566	6.110509858478503	3138604
3138842	Theory	towards a new theory of sequential switching networks	1970	5.37203877441238	7.181259166348396	3138869
3139269	Logic	optimizing symbolic model checking for constraint-rich models	1999	4.753338118239812	5.708477615311767	3139296
3139750	Graphics	the design of a user interface for a sparse matrix package	1979	6.272187118072585	6.226663186276324	3139777
3140713	DB	pending evolution of grammars.	2013	5.063740130690652	7.383540768776566	3140740
3141282	PL	comparing transitive to non-transitive object immutability	2015	4.734825498691974	7.289252679180055	3141309
3141585	DB	a structural model of eca rules in active database	2002	5.77795822956258	6.592206162446003	3141612
3141764	PL	multiparadigm design of a simple relational database	2000	6.204091649245924	6.768603191245711	3141791
3143027	Web+IR	pre-evaluation of invariant layout in functional variable-data documents	2010	4.404084463918969	5.826487472907632	3143054
3143155	Logic	handling identifiers as internal symbols in language processors	1959	4.832280320254892	6.53628768081852	3143182
3144106	Logic	the application of promela and spin in the bos project	1996	6.150764403849123	6.410756623281125	3144133
3144786	SE	an inheritance-based technique for building simulation proofs incrementally	2002	4.50360424666632	7.4501858007973585	3144813
3144993	PL	programming pearls: data structures programs	1983	6.103436711221333	6.632972708710962	3145020
3145437	PL	rdp - an iterator-based recursive descent parser generator with tree promotion operators	1998	5.048239652926107	6.98419120247253	3145464
3145941	PL	automatic programming for streams ii: transformational implementation	1988	4.548220373868586	6.869821172120183	3145968
3146352	PL	the influence of dependent types (keynote)	2017	4.901428229636934	6.8473159283454414	3146379
3146422	PL	syntax macros and extended translation	1966	4.725918730481991	6.579279769052564	3146449
3146751	PL	the design and implementation of the yap compiler: an optimizing compiler for logic programming languages	2006	5.386696105535036	7.368495679352014	3146778
3147033	SE	barrier slicing and chopping	2003	4.569527105094593	7.357790013475697	3147060
3147472	Logic	building formal method tools in the isabelle/isar framework	2007	5.627853828411542	7.4343046997168525	3147499
3148444	PL	polymorphism and type inference in database programming	1996	4.9081941329338985	6.8458405253512575	3148471
3148989	SE	exploring the software development trilogy	1998	5.444822629485369	6.982098573016832	3149016
3149163	Theory	on parallelism of hyper-linking theorem proving: a preliminary report	1996	4.694875130906441	6.522533965548796	3149190
3149434	Theory	remarks on algol and symbol manipulation	1959	4.817867070990009	6.487543165956459	3149461
3149636	Embedded	a petri net extension for schedulability analysis of real time embedded systems	2010	5.5128748247863095	5.858766881938701	3149663
3150741	SE	dave-a validation error detection and documentation system for fortran programs	1976	6.041094799148801	6.5802892526730545	3150768
3150955	PL	variability-based model transformation: formal foundation and application	2017	5.459822912339638	6.381771771885571	3150982
3151009	HPC	parallel and distributed graph transformation - formal description and application to communication-based systems	1996	5.674750561309053	6.2914597914423895	3151036
3151477	SE	a typed model for encoding-based protocol interoperability	2004	5.382295243484446	6.357316809797361	3151504
3152029	PL	a programming aid for structured programmers	1974	5.818867521060794	7.113493363530775	3152056
3152634	Robotics	layering and enveloping: simplified algorithm with balancing loop fuzzy petri net	2010	4.505262971967726	6.507663457597348	3152661
3154684	SE	minding the (semantic) gap: engineering programming language theory	2010	5.462434945107379	6.032404727808258	3154711
3154843	Logic	jmosel: a stand-alone tool and jabc plugin for m2l(str)	2006	5.8560366196757965	7.003236522611768	3154870
3155431	PL	functional programming	2008	5.2890809435678	7.269612444027497	3155458
3155624	DB	a comprehension-based database language and its distributed execution	1990	5.042631233711565	7.026324641628107	3155651
3155921	NLP	yooccla: a parser generator for l-attributed grammars	2000	5.531091543331693	6.913856604967267	3155948
3156983	PL	the lookup technique to replace nested-if formulas in spreadsheet programming	2009	4.6923435132037215	5.8411946389899185	3157010
3157404	EDA	an overview of systematic development of parallel systems for reconfigurable hardware	2002	5.84331759344969	7.090129368590777	3157431
3157600	Logic	metrics for multithreaded java program verification	2005	4.9911154034389575	5.8938016504649315	3157627
3157617	SE	precise range analysis on large industry code	2013	5.447087445004506	7.2137602238983165	3157644
3157665	PL	support for language independent browsing of aggregate values by debugger backends	2009	5.987882034752018	7.336464909489803	3157692
3157695	PL	a programming language without keywords	2013	5.5557109648424055	6.274126764663289	3157722
3157702	PL	ml: metalanguage or object language?	2010	4.4737650693375315	6.093008858215356	3157729
3158806	ML	aesthetics and automatic layout of uml class diagrams	2005	5.07361853831618	6.065583324416476	3158833
3159145	PL	a formal semantic definition of devil	2003	5.874598397938143	6.545963631675416	3159172
3159731	Theory	coroutine programming in fortran	1972	5.559236054245108	5.595564402198904	3159758
3160484	PL	the translation of programming languages through the use of a graph transformation language	1982	5.4475968698791695	6.741173147981435	3160511
3160642	PL	multiple dispatch as dispatch on tuples	1998	5.5742742672763255	7.439653709339584	3160669
3160676	PL	hepmath 1.4: a mathematica package for semi-automatic computations in high energy physics	2015	5.914767849492137	6.735876893449802	3160703
3160847	SE	a smalltalk system for algebraic manipulation	1986	4.672524605249678	7.250873028752919	3160874
3160926	AI	a language for modeling and simulating dynamic systems	1967	6.242451929192746	6.372235543120157	3160953
3161121	OS	automatic generation of execution tools in a gandalf environment	1985	5.436358783690545	7.2860753006078935	3161148
3161537	PL	the formal specification of oberon	1997	5.361974923442419	6.90319001166874	3161564
3161641	PL	alice through the looking glass	2004	5.005470311176421	7.44267345834896	3161668
3161643	Logic	logic, individuals and concepts	2000	5.517329620581527	6.164694228437773	3161670
3161935	AI	generating multiple new designs from a sketch	1996	5.466494413999103	5.669872768153278	3161962
3162800	PL	object-oriented style overloading for haskell	2001	5.0149252673813525	7.404668204893772	3162827
3166285	Robotics	a framework to specify and evaluate coordination in mas with logic	2004	5.6776876092785855	5.536963317978178	3166312
3166748	PL	economic justification of an oscl/osrl	1976	6.224499734878112	6.31184189083954	3166775
3167511	Crypto	an automatic overlay generator	1986	5.636955168117495	5.65682479223125	3167538
3168803	Logic	comment on the composition of semantics in algol 68	1972	5.3844014596862575	5.752190088520744	3168830
3169268	PL	the safety of a coroutine system	1977	4.619133761385744	7.410422896798062	3169295
3169378	PL	how to relieve a programmer from synchronization details	1988	4.823966584054518	6.365154316624981	3169405
3169807	PL	designing extensible classes	2007	4.947933334784194	7.022130265882216	3169834
3169855	OS	a logic-independent ide	2014	4.930405521255417	6.1220419668474015	3169882
3170275	NLP	typing as a means for validating feature structures	1999	4.956280299355363	7.055871575090852	3170302
3171001	Security	expand, a system for input card replication	1964	5.423353772396253	6.507261025158981	3171028
3171167	PL	a history of haskell: being lazy with class	2007	5.166617395290147	6.221283631126952	3171194
3171207	PL	transparent filtering of streams in glade	1997	6.081667362281864	7.209871093313608	3171234
3171373	Logic	a tool for the integration of constraint solving in spreadsheets	2012	4.4954598154646135	6.6306985508481775	3171400
3171716	SE	class-diagrams for abstract data types	2017	4.819042611093559	7.054074490489299	3171743
3171868	HPC	compiling sql into system/370 machine language	2012	5.781397018897352	6.604287963584167	3171895
3172225	PL	do values grow on trees?: expression integrity in functional programming	2011	4.60215172598874	5.757912199897563	3172252
3172451	DB	the dual structure of ordered trees	1991	5.259886730484736	6.2572316753800585	3172478
3173018	PL	object-oriented programming versus abstract data types	1990	4.849180133705186	6.6976264596540975	3173045
3173082	AI	an intensional programming approach to multi-agent coordination in a distributed network of agents	2005	5.926152152518563	7.028803211116856	3173109
3173477	OS	hiding expressed using relation algebra with multi-relations - oblique lifting and lowering for unbalanced systems	2000	4.965481609228231	7.06586774400083	3173504
3174168	HCI	a comparison of modula-3 and oberon-2	1993	5.412968333772691	6.715615275869819	3174195
3174394	EDA	leda - a library of efficient data types and algorithms	1990	5.345648326339552	6.417011314786607	3174421
3175751	PL	interpretation control using a linear tree representation	1977	4.7047386862430844	6.815501276625848	3175778
3175838	SE	concordia: a google for malware	2010	6.1566123620966655	7.1819754513688325	3175865
3177290	Logic	verification column	2018	4.890475604711204	5.6599286769396935	3177317
3178348	SE	restoring natural language as a computerised mathematics input method	2007	4.72092445443725	6.136135501758691	3178375
3179634	PL	first steps toward a cryptography-aware language and compiler	2005	6.112996531999015	6.661629842559612	3179661
3180118	SE	symbolic execution and the testing of cobol programs	1991	6.024097836755966	5.838413641711817	3180145
3180129	PL	generic programming within dependently typed programming	2002	4.3995095656279295	7.079413826894282	3180156
3181097	SE	implementing prototype testing tools	1995	6.187161028664978	7.32152135391754	3181124
3181266	PL	phorms: pattern combinator library for pharo	2016	6.148689293703347	7.089722382836371	3181293
3181365	DB	automatic data structure choice in a language of very high level	1975	4.4889209640631575	6.4548303105360105	3181392
3181469	Theory	an algebraic translator	1959	4.5783327626043	6.519974303369392	3181496
3181485	PL	program proving using intermediate verification languages (ivls) like boogie and why3	2012	5.461577782090696	7.314174110824664	3181512
3181748	Graphics	mathpsfrag 2: convenient latex labels in mathematica	2008	5.729550444113575	6.230104258946728	3181775
3182540	PL	implementation benefits of c++ language mechanisms	1990	5.900964135128027	7.236369218482965	3182567
3183219	PL	haskell, do you read me?: constructing and composing efficient top-down parsers at runtime	2008	4.7457065594843115	7.090955607261801	3183246
3184023	DB	priority controlled incremental attribute evaluation in attributed graph grammars	1989	5.064630314376173	7.074691449487492	3184050
3184377	Robotics	a new formalism for failure diagnosis: ant colony decision petri nets	2007	5.386366462244243	6.975849294822379	3184404
3184569	ML	an experiment in distributed program design, using control enrichment	1982	5.465354472114487	7.3307291883605386	3184596
3185117	EDA	interactive teaching of elementary digital logic design with winlogilab	2004	4.7621374096704345	5.981312379857797	3185144
3185842	PL	a machine-independent apl interpreter	1978	4.9436019902537005	6.667092872784772	3185869
3186296	PL	incorporating user interaction into imperative languages	2015	6.026732976865313	7.258828069091603	3186323
3186600	Logic	an approach to model checking for nonlinear analog systems	2002	4.8919041401216266	6.848781132139824	3186627
3187001	PL	abstraction in pascal: data and control	1987	4.828396312441469	6.657752357195507	3187028
3187283	PL	c++: solving c's shortcomings?	1989	4.9359029022107785	6.7959466098949015	3187310
3187335	PL	on the role of language constructs for framework design	2000	5.3749471850813535	6.625451265685755	3187362
3187421	PL	stepwise development of operational and denotational semantics for prolog	1984	4.676310053782413	5.7690762796993305	3187448
3187739	PL	some concerns aboul modula-2	1984	5.189512513250468	6.8402314062220295	3187766
3188593	PL	the structure of programming languages	1966	5.459388108295853	6.353846258143529	3188620
3188885	PL	effect of modularity on system evolution	1987	5.555287632169344	7.064340705711224	3188912
3188896	Logic	scratchpad ii: an abstract datatype system for mathematical computation	1987	4.8820002622437295	6.644547690519653	3188923
3188988	PL	guarded program transformations using jtl	2008	5.233330588425232	7.143659534518932	3189015
3189698	Logic	the apl il interpreter generator	1991	5.519834371088829	6.981801334329847	3189725
3189971	PL	a semantics-directed compiler generator	1982	4.727243337981441	7.337805374106235	3189998
3190020	PL	class diversity support in object-oriented languages	1999	5.126716302846141	6.907629707940787	3190047
3190494	PL	a production system language kdops	1994	4.952265629120921	6.708888162315558	3190521
3191028	DB	advanced modelling made simple with the gmodel metalanguage	2010	6.255635839824519	7.396409638147343	3191055
3191261	PL	run time type information and class design	1992	5.312181169702277	6.6703744594578716	3191288
3191795	DB	list processing and extension of language facility by embedding	1964	4.799632413061488	6.792884529784242	3191822
3191929	PL	modeling of languages for tensor manipulation	2018	4.467383277590192	7.240209464712514	3191956
3192021	Logic	decompilation of control structures by means of graph transformations	1985	5.511412951349093	6.736086779674588	3192048
3192733	EDA	xtp - efficient parallel software implementation based on a petri net specification technique	1992	5.751487962425469	5.847538979486583	3192760
3193025	Arch	specification and control of execution of nondeterministic dataflow programs	1987	5.022253401025743	6.005675262956053	3193052
3193392	PL	remark on algorithm 368: numerical inversion of laplace transforms	1970	4.911795174126182	6.295023889685407	3193419
3193815	PL	towards the usage of dynamic object aggregations as a foundation for composition	2000	5.5957804232476125	6.5010596731386965	3193842
3194003	PL	customisable handling of java references in prolog programs	2014	5.387261904584304	7.366305188509381	3194030
3194586	PL	parsing and translation of expressions by genetic programming	2005	4.610177594265591	7.326897214185532	3194613
3194656	PL	etc: an extendible macro-based compiler	1971	5.435206776638489	6.997385168595892	3194683
3195759	Logic	causal normalization: a methodology for coherent story logic design in computer role-playing games	2002	5.0364564886625445	5.936455142488606	3195786
3195868	SE	the software development workbench wsdw	1992	6.109778820510918	6.653494012997969	3195895
3196491	SE	predefined operators in java card dl	2007	5.019508174564474	6.473637350060943	3196518
3197163	HCI	interactive tools for conceptual programming using apl-graphics: the integral and derivative operators	1977	5.093918093581955	5.962997747067685	3197190
3197446	PL	executing code in the past: efficient in-memory object graph versioning	2009	5.676242457832763	7.0882997549068785	3197473
3197683	AI	a coordination language for agents interacting in distributed plan-execute cycles	2009	4.718999321001651	5.817867761801765	3197710
3197865	SE	the well-tempered semaphore: theme with variations	2002	6.0122340131311125	5.8560935255474185	3197892
3198774	Visualization	tensor contraction in c++	2001	4.954130865090916	5.916363667665385	3198801
3199829	PL	how does a program run? a visual model based on annotating abstract syntax trees	2016	5.673234230962125	6.469470855437662	3199856
3200303	PL	the command interpreter and command language design of the com-share commander ii system	1976	5.900632811380224	6.514338193414139	3200330
3200345	ML	translationg obj3 into casl: the institution level	1998	5.858539550877657	6.450645829197277	3200372
3200716	PL	thinglab - an object-oriented system for building simulations using constraints	1977	4.6830761342882425	6.564548760090696	3200743
3201084	PL	cocos - a configurable sdl compiler for generating efficient protocol implementations	1999	5.9645509865516475	6.354412731427232	3201111
3201285	Logic	a measure of logical complexity of programs	1982	5.124118551691263	6.634346361791747	3201312
3201674	PL	generalized type-based disambiguation of meta programs with concrete object syntax	2005	5.1856896425973025	6.913206852195903	3201701
3201712	PL	ambush: a case history in language design	1971	4.938604583632371	6.091833093107356	3201739
3203629	Theory	an algol 68 package for implementing graph algorithms	1980	5.388890874698653	6.435311403050092	3203656
3203924	HPC	a comparison of c++, fortran 90 and oberon-2 for scientific programming	1995	5.8772818976244166	6.418155099979584	3203951
3204194	PL	compiler construction with basic programming languages constructs and generalized interpreting automata	2018	5.2718781309249385	6.823332770211391	3204221
3204777	PL	natural language presentation and combination of automatically generated proofs	1996	4.894940986478846	6.409434893522202	3204804
3204892	SE	experience with a portable debugging tool	1984	5.720417774168942	7.027506168917313	3204919
3205258	AI	the non-problem of nested monitor calls	1978	4.768436450968027	6.343233280298942	3205285
3205343	PL	inheritance concept for signals in object-oriented extensions to vhdl	1995	5.196956022864372	7.0917551044291445	3205370
3205995	PL	generating types is better than programming them.	1995	4.7515678838025455	6.476483702043898	3206022
3206103	ML	experimenting the gröbner basis algorithm with the a1pi system	1989	5.517415306743289	6.306795788307609	3206130
3206478	PL	iguana: a practical data-dependent parsing framework	2016	4.825801612021482	7.22858909835216	3206505
3206774	Theory	helloworld! an instructive case for the transformation tool contest	2011	5.701390541805465	6.877362499376416	3206801
3206958	Robotics	functionality investigation using a discrete event system approach	1994	6.266537666005678	6.3074977836233606	3206985
3207565	NLP	transformations of translation grammars	1994	4.4149128223438	6.353663457180174	3207592
3207686	PL	type inference for cobol systems	1998	4.800620916984308	6.654268729887733	3207713
3207885	SE	detecting feature interactions in cpl	2007	5.476095613199086	7.013609437490037	3207912
3208186	PL	a logic programming view of relational morphology	1992	4.447695034686215	6.262073223890269	3208213
3210201	PL	rtcmix - using cmix in real time	1997	5.9425485237649385	6.506717792044616	3210228
3210262	PL	automatic type reconstruction in disassembled c programs	2008	4.8264738549362365	6.595995688240838	3210289
3211052	PL	aspects of oberon suitable for graphics applications	1989	5.67475076147194	6.132656046509499	3211079
3211423	NLP	the cost of a generated parser	1985	4.6911489805273145	6.888471439334508	3211450
3212433	AI	designing financial swaps with clp (r)	1996	5.548361196670194	6.458766055551525	3212460
3212590	PL	on access restriction with java wildcards.	2005	4.450134650042017	7.15484392433201	3212617
3212884	PL	efficient compensation handling via subjective updates	2017	5.4505266226165965	5.973187997143261	3212911
3213239	SE	evaluation of a knowledge-based approach to program understanding	1996	5.347672155823336	6.723732797857318	3213266
3213442	Logic	refinement checking for interface automata with z notation.	2010	5.141160432181222	5.854587524149392	3213469
3213524	NLP	abstract syntax notation x (asn.x) representation of encoding instructions for the generic string encoding rules (gser)	2007	5.920968537850389	6.365959489851121	3213551
3213584	DB	opus: a calculus for modelling object-oriented concepts	1994	5.0065885950748035	7.1042381349816655	3213611
3213965	PL	a tutorial for make	1985	5.590393674049777	6.537705438743352	3213992
3214484	Logic	formal verification and testing based on p systems	2009	4.943198615928128	6.210926910855738	3214511
3215421	EDA	a hierarchical approach to hardware design	1989	5.886721169600197	5.783649906476703	3215448
3216000	PL	structured program generation techniques	2015	5.587962661542492	7.013382028625346	3216027
3217245	NLP	loosely tree-based alignment for machine translation	2003	4.453132634066115	5.8309458041089846	3217272
3217352	DB	databases and programming: two subjects divided by a common language?	2015	5.079940605680216	6.147423517091839	3217379
3217878	PL	slaw (abstract only): a language free environment - future directions and research	1987	5.315748007572172	6.610263878605718	3217905
3217982	PL	visitors unchained	2017	5.656991469246114	7.3666225731553725	3218009
3218410	PL	a generalization of algol	1963	5.143515734257322	6.7859067130337225	3218437
3218753	HPC	set constraint solver - gröbner bases for non-numerical domains	1997	5.230754644625798	6.463990726524183	3218780
3219786	PL	statik: an incremental compiler generator	2015	5.674219736566059	7.040570689084332	3219813
3220370	ML	cvxpy: a python-embedded modeling language for convex optimization	2016	4.990656506884789	6.465007241777867	3220397
3220525	HPC	sigma ii: a tool kit for building parallelizing compilers and performance analysis systems	1992	5.3640023414237366	5.632476416332109	3220552
3221214	PL	a modular module system	2000	5.317380860794946	7.183297716448541	3221241
3221745	PL	program transformation through meta-shifting	1983	4.464538422961454	7.294655385183103	3221772
3222065	Logic	the minimal user interface of a simple refinement tool	1998	4.827249671471359	7.056527659241719	3222092
3222066	EDA	optimized synthesis of self-testable finite state machines	1990	5.482063309934041	5.999250042101242	3222093
3222600	Embedded	mapping high-level syntax and structure into assembly language	1985	6.011950838883847	6.094479502649268	3222627
3222685	PL	synchronized regular expressions	2003	5.156254099316001	6.332173535920682	3222712
3222903	NLP	borealis bounded model checker: the coming of age story	2017	6.115869907341352	7.346847867380247	3222930
3224202	PL	probabilistic programs as spreadsheet queries	2015	4.454165496827099	7.005951782080018	3224229
3224288	HPC	mathpartner computer algebra	2017	5.738298495734589	5.961412510049588	3224315
3224587	PL	reasoning about functional programming in java and c++	2018	6.064190346929432	7.352244128849906	3224614
3225328	SE	a 1900 fortran  post mortem  dump system	1978	5.6535434431625164	6.408587049761237	3225355
3226065	PL	a unified system of parameterization for programming languages	1988	4.53341368431376	6.680373397907063	3226092
3226294	PL	design patterns as higher-order datatype-generic programs	2006	5.080126378342068	6.770037181323758	3226321
3227478	PL	system description languages	1970	6.173878089205688	6.3586116758165625	3227505
3228056	PL	an integrated, software-based approach to teaching introductory computer programming	1994	5.637445408680704	6.470566135162129	3228083
3228586	PL	classes: an abstract data type facility for the c language	1982	5.4853661915095095	7.088181304058688	3228613
3228754	Graphics	picture files for hierarchically structured pictures	1990	5.147523503622794	6.305210709816674	3228781
3229701	AI	a java wrapper for dlv	2003	5.678086811405931	6.28144618153905	3229728
3229846	DB	the knowledge acquisition and representation language karl	1998	5.437008858881995	6.290477293698523	3229873
3230188	PL	problem solving environments	1989	6.292550801129978	6.514903623669237	3230215
3230521	PL	program proving: coroutines	1973	4.856561617826153	7.0538551118054045	3230548
3231433	PL	ambiguities and insecurities in modula-2	1982	5.317928441447053	6.632701686384952	3231460
3232641	PL	a mathematical definition of full prolog	1995	4.3986234565214195	6.710312185266748	3232668
3233163	DB	semantic enrichment of mathematics via 'tooltips'	2015	5.037547614985644	6.327785191707075	3233190
3233597	PL	tree drawing using constraint logic programming.	1997	4.593444204560181	6.212704615122039	3233624
3233792	AI	information-passing and belief revision in multi-agent systems	1998	4.855467212370079	7.352560393573515	3233819
3233854	PL	a region-oriented hardware implementation for membrane computing applications	2009	4.952302740629714	7.314203769194424	3233881
3234012	NLP	a convenient way to incorporate semantic: actions in two-pass compiling scheme	1988	4.652486460396222	6.353087157529067	3234039
3234782	SE	data representation alternatives in semantically augmented numerical models	2006	5.686839409645858	6.289327860352395	3234809
3235251	Theory	aplo: a simple modern apl	1989	5.795918086351155	6.301425492865463	3235278
3236902	PL	pizza into java: translating theory into practice	1997	4.519990344028727	7.313121829394229	3236929
3239004	DB	a study of object evolution	2003	5.8730148609573245	7.235372416555432	3239031
3239683	EDA	coverage-driven design verification using a diverse sat solver	2017	5.126978378688747	5.61814111720523	3239710
3240352	AI	perspectives of systems informatics	2011	6.068931227777215	5.746162783791371	3240379
3240590	PL	identifying profitable specialization in object-oriented languages	1994	5.197573210966907	7.335375947052849	3240617
3240823	SE	a user-oriented approach to control languages	1976	6.159282971610542	5.863410513620198	3240850
3240980	PL	detecting global variables in denotational specifications	1985	4.533513506178994	6.933194979775717	3241007
3241261	PL	synthesis of programs in computational logic	2004	4.628770688730535	6.3021844343424975	3241288
3241373	AI	from prolog iii to prolog iv: the logic of constraint programming revisited	1999	4.6995452606207575	6.046165997999911	3241400
3242553	SE	practical state machines for computer software and engineering	2015	5.8613926604221485	6.701682089576298	3242580
3243003	AI	on programs, tasks and processes	1985	4.4957372415808186	6.138521159539107	3243030
3243117	NLP	a model-driven approach to automatic conversion of physical units	2008	5.220486404399108	6.560309411861773	3243144
3243132	PL	the psg - programming system generator	1985	5.55008242337375	6.752796714166879	3243159
3243160	NLP	cpachecker with sequential combination of explicit-state analysis and predicate analysis - (competition contribution)	2013	4.475205708076631	6.2834897152104805	3243187
3243237	PL	a computer system for transformational grammar	1969	5.953320777601338	6.199380924017656	3243264
3244181	PL	uninitialized modula-2 abstract objects, revisited	1987	4.766346144100881	6.637774628995988	3244208
3244386	HPC	programming for distributed computing: from physical to logical networks	2011	4.9114262303487966	6.551957451651722	3244413
3245237	SE	amphion: automatic programming for scientific subroutine libraries	1994	5.9439323157495085	6.934978207870872	3245264
3245336	HCI	join token-based event handling: a comprehensive framework for game programming	2011	6.1041439702975575	7.325282381960952	3245363
3245450	Embedded	sdl implementations for wireless sensor networks - incorporation of pragmadev's rtds into the deterministic protocol stack bips	2014	5.833896291618849	5.988319570411546	3245477
3247003	PL	quantum computation: from a programmer’s perspective	2012	4.693020712945696	6.216441633209452	3247030
3247253	PL	software architecture	2015	5.085953061277858	7.208177152879385	3247280
3247258	PL	multiple inheritance in simula-like languages	1985	4.864178508010057	5.987672647643382	3247285
3247465	HPC	: a parallel p-code for parallel pascal and other high level languages	1983	5.520301719610383	5.852134261222737	3247492
3247699	HPC	static and run-time characteristics of ods5 production systems	1989	5.606706080941797	6.934017372428486	3247726
3248035	SE	a language-independent system to aid the development of structured programs	1976	6.031591958583753	6.278051764101398	3248062
3248498	Logic	hilberticus - a tool deciding an elementary sublanguage of set theory	2001	4.625576561832454	6.073756198650365	3248525
3249092	SE	a declarative specification and semantics for visual languages	1991	5.615009541437376	6.91052449172194	3249119
3249446	PL	very high-level language design: a viewpoint	1976	5.838141341164012	6.305508963643731	3249473
3249488	SE	cross software development for microprocessors using a translator writing system	1979	6.105215304878197	6.825958637591972	3249515
3250326	DB	system handling of functional operators	1961	4.5429373468473395	6.603301209100909	3250353
3250961	PL	case studies in model manipulation for scientific computing	2008	4.773283890706964	6.512236701113608	3250988
3251281	PL	lazy combinators for executable specifications of general attribute grammars	2010	4.455436901045288	6.620514783081018	3251308
3251374	PL	aplgol, an experimental structured programming language	1973	4.987991065694787	6.837467494088045	3251401
3251651	Logic	formal verification, testing and checking of real-time systems	1996	5.871523711143613	7.030741646411326	3251678
3251672	PL	code you are happy to paste: an algorithmic dictionary of exponential families	2014	6.079508537068043	6.428953039096518	3251699
3251690	SE	syntaxtrain: relieving the pain of learning syntax	2011	5.702175217263358	5.946495035865286	3251717
3252596	EDA	preprocessing embedded actions	1984	5.346137220680253	6.897847045538591	3252623
3252696	PL	games in the semantics of programming languages – an elementary introduction	2002	4.617773594269597	6.361507524056053	3252723
3252885	PL	from macros to reusable generative programming	1999	6.118153062686701	7.305777101126899	3252912
3253710	AI	some new numeric programming features in c9x	2001	5.427887314823762	5.550290058418662	3253737
3253986	HPC	genasis: general astrophysical simulation system. i. fundamentals	2012	5.659373530437333	6.034587486901129	3254013
3253988	DB	the joy of sax	2004	5.823363576177611	5.658598361721932	3254015
3253990	PL	simple and efficient compilation of list comprehension in common lisp	2007	5.553310816152793	6.9495339473187006	3254017
3254111	SE	on methodologies for coordinating programs.	2003	6.06630223603416	5.7174791549707376	3254138
3254112	Robotics	conceptual transformation from sdl-92 to chill-96 using signal subordination	1999	5.151035885465241	6.194711049188723	3254139
3254462	PL	high level reading and data structure compilation	1997	5.020832718811051	7.013417610779112	3254489
3254821	PL	addressing types and objects in ada	1987	5.561142110167532	6.7697187947031905	3254848
3255063	PL	symbol table management in an hpf debugger	1999	5.84600392229556	6.712035436815382	3255090
3255413	PL	compiling from saved state: fast incremental compilation with traditional unix compilers	1991	5.680982480480991	6.34202984770589	3255440
3255461	NLP	vax - structured assembly language programming (2. ed)	1991	5.8571637619383035	5.724083423421782	3255488
3255869	SE	recovering model invariants from simulation traces with petri net analysis techniques	2009	6.014717998623773	6.069374113947792	3255896
3256751	PL	a modest proposal for curing the public field phobia	2002	5.846113775269184	6.101961896711948	3256778
3256847	Arch	reduce/1700: a micro-coded algebra system	1978	5.62928604830495	6.547158498032883	3256874
3257227	SE	name resolutions using a microprogrammed interpretive technique	1973	4.651153331547016	7.3843922328954275	3257254
3257252	Arch	documenting a computer architecture	1983	6.1597498493648315	5.929919974727938	3257279
3257617	PL	a concept for functional programming and distributed data processing in a local area network and its implementation	1990	6.135862981203742	6.536773234703356	3257644
3257635	PL	"""review of """"algorithms in c++, third edition by robert sedgewick."""" addison-wesley 2002"""	2003	6.1568885048008255	6.741271467861135	3257662
3257724	PL	the syntax of apl, an old approach revisited	1987	4.704299111741543	6.526981829682852	3257751
3258567	PL	aladin: an abstract machine for integrating functional and procedural programming	1996	4.56347223485844	7.30048781037266	3258594
3258841	PL	a syntax-directed approach to inverse compilation	1974	5.15071639611129	7.4124863462455615	3258868
3259749	PL	a haskell hosted dsl for writing transformation systems	2009	5.4000685877311945	7.345514624701938	3259776
3259908	Networks	formal specification and verification of safety and performance of tcp selective acknowledgement	2002	5.8363181098249655	5.562029476080485	3259935
3260055	Arch	high lisp performance on a high-level language processor	1987	5.574892313202425	5.701214203512018	3260082
3260295	Graphics	the gap 4 type system: organising algebraic algorithms	1998	6.109396094437251	6.84237748087822	3260322
3260629	HCI	complete context calculus design and implementation in gipsy	2010	5.753758702868687	6.153798943532773	3260656
3260865	PL	strategies for machine instruction transformation in an expert system	1992	5.8998815644916105	6.60265761335422	3260892
3260900	DB	a ring processing package for use with fortran or a similar high-level language	1970	5.765573076012024	5.951267496532439	3260927
3261965	Theory	aspects of the pgg system: specialization for standard scheme	1998	4.448311877202361	7.109903707389509	3261992
3262029	SE	two implementations of the ada program library	1984	5.882651231391307	7.300331850113487	3262056
3262330	AI	reasoning about system-degradation and fault-recovery with deontic logic	2009	4.751675371970737	5.6035973962003425	3262357
3262376	AI	direct granularity conversions among temporal constraints	2003	5.624222315775029	5.651728798514999	3262403
3262512	Theory	a formal theorem in church's theory of types	1942	4.617487926807158	5.807080618597188	3262539
3262660	PL	building a commercial owl reasoner with lisp	2007	5.430562878933905	6.30344740814926	3262687
3264408	PL	adverbial programming	1990	5.279124658397488	6.581647937608183	3264435
3264654	PL	describing butterfly networks in ruby	1989	5.548848055208774	6.532208687298392	3264681
3265683	SE	implementation of an interpreter for abstract equations	1985	4.383717903092418	7.036815748680418	3265710
3265899	PL	adding data and procedure abstraction to the transparent prolog machine tpm	1988	5.439175144019488	7.082529642171498	3265926
3266373	PL	"""debunking the """"expensive procedure call"""" myth or, procedure call implementations considered harmful or, lambda: the ultimate goto"""	1977	4.808298487351838	6.854380265060649	3266400
3266435	EDA	a constraint solver and its application to machine code test generation	2012	5.678273207183228	5.964699517565836	3266462
3266741	ML	object-oriented model for partially seperable functions in parameter estimation	1999	5.918192782297213	6.6401947254054745	3266768
3266828	PL	lazy functional programming in java	2006	5.337099661486829	7.1883313029936815	3266855
3266869	DB	a comment on “a direct approach for determining the switch points in the karnik–mendel algorithm”	2018	4.93188068721035	6.489145801744057	3266896
3267214	PL	profgen: a procedure for generating machine independent high-level language profilers	1984	5.254585728984141	7.4061477664001885	3267241
3267828	Logic	javacard program verification	2001	6.1273125309202525	6.897968752128563	3267855
3268314	SE	new type signatures for legacy fortran subroutines	1999	4.864450075377929	7.311343213315585	3268341
3268760	SE	theory and practice of concurrent systems - a position paper	1988	5.969595829166638	5.755461845806358	3268787
3269106	Logic	logic-based verification of the distributed dining philosophers protocol	2018	5.187121374507068	5.994162173367453	3269133
3270126	Robotics	llp supervisory control with timed petri net models in mobile robots	2001	4.907051655593028	5.542270944508862	3270153
3271782	PL	developing integrated environments with asdl	1989	5.969136759881847	7.035652984274088	3271809
3271850	PL	"""a reexamination of """"optimization of array subscript range checks"""""""	1995	5.221873805127862	6.094593300701248	3271877
3271947	PL	cduce: an xml-centric general-purpose language	2003	5.487029888360505	6.649549119683477	3271974
3272042	Logic	miga, a software tool for nonlinear system modelling with modular neural networks	2004	6.06636511719836	5.971194309521218	3272069
3272276	Logic	reasoning about distributed systems: wysiwyg (invited talk)	2014	5.703831727664727	6.219181930326452	3272303
3272354	Logic	silver: an extensible attribute grammar system	2008	5.718780938802079	7.334229536387916	3272381
3272388	PL	an overview of the sloth2005 curry system: system description	2005	4.774791724791786	6.717282403378958	3272415
3272735	PL	modelica on the java virtual machine	2013	5.8891369715443345	7.268004743879554	3272762
3273742	HCI	nested coroutines for exception handling in modula-2	1990	5.400932390585519	6.358513047592484	3273769
3274495	OS	parallel micros (abstract)	1986	5.556302530230321	6.297128923317237	3274522
3274741	Logic	the formal definition of the basic language	1972	4.4591949525840935	6.326113622155881	3274768
3274914	PL	a flow analysis algorithm	1964	5.692091087409352	5.7054724274608795	3274941
3275028	PL	specifying parallel programs in a functional language: the epl experience	1994	5.601890919497824	6.267838913347077	3275055
3275930	Arch	reduction, data flow and control flow models of computation	1986	6.0567383932440455	6.784466603663242	3275957
3275938	NLP	a note introducing syntax through semantic routines	1987	4.804472035962378	6.0886355874161175	3275965
3276087	SE	controlled natural language can replace first-order logic	1999	5.267262763047103	6.777503514993956	3276114
3276284	Logic	the innovation in computing companion	2018	5.437530930926721	7.3698508152285	3276311
3277050	AI	constraint systems for pattern analysis of constraint logic-based languages.	1995	5.05060075129801	7.233004160285495	3277077
3277191	PL	a sleeper-based prolog interpreter with loop checks	1994	5.059145037113808	5.606094014818156	3277218
3277309	AI	program analysis and machine learning: a win-win deal	2011	6.148348324692744	6.344813418222954	3277336
3277761	Logic	three is a crowd: sat, smt and clp on a chessboard	2018	4.572090426894586	7.287792152713343	3277788
3277984	OS	propositional production systems for dialog description	1990	4.516591206021508	6.50712186389904	3278011
3278424	Logic	kbcv - knuth-bendix completion visualizer	2012	5.245098470177237	7.091226407527086	3278451
3279488	Logic	programming by examples	1979	5.198088855154407	6.103400632586478	3279515
3280075	SE	mopping up exceptions	1998	6.18594176988332	6.289387609823812	3280102
3280613	Logic	the decomposition of esm computations	1994	4.492879374843828	6.115380729549353	3280640
3280794	NLP	the cellar principle of state transition and storage allocation	1990	4.544664072809033	6.784579889194424	3280821
3280812	Logic	the next 700 separation logics - (invited paper).	2010	4.882757416506103	7.253408858984393	3280839
3281277	NLP	relaxed parsing of regular approximations of string-embedded languages	2015	4.519282482334226	6.932105057750249	3281304
3281824	PL	proving correctness of modular functional programs	1999	4.38241023180846	7.134112322591863	3281851
3282729	Logic	the mathsat5 smt solver	2013	4.801866545680125	7.246341585294982	3282756
3283502	Theory	operation transforms for a distributed shared spreadsheet	1998	6.2444289987543815	5.629415233551085	3283529
3283613	Embedded	concurrent, real-time systems: a systematic approach using timed petri nets	1987	5.466539582004542	5.705833710626745	3283640
3283622	PL	pervasive parallelism in highly-trustable interactive theorem proving systems	2013	4.716975777556502	7.30514222749197	3283649
3284187	PL	the expression problem, trivially!	2016	4.932822335902834	7.408516330924307	3284214
3284361	Robotics	tool demonstration abstract: openmodelica and casadi for model-based dynamic optimization	2013	6.052352737008878	7.09134498251537	3284388
3284429	PL	a metaobject protocol for clforjava	2007	5.454096730012879	7.3192108737712624	3284456
3288112	AI	cooperative body-brain coevolutionary synthesis of mechatronic systems	2008	6.2724338590753055	5.804889064399997	3288139
3288151	PL	moving from c to c++	2013	5.050752887855512	6.685655349452564	3288178
3288210	PL	proof presentation for isabelle	1997	4.6880429836854365	6.7913002726149765	3288237
3289208	SE	a simple approach to specifying concurrent systems	1989	4.461421001213856	6.85375482898892	3289235
3290116	AI	a general systematic approach to arc extensions for coloured petri nets	1994	4.549025371329629	7.229820854387202	3290143
3290322	Theory	concurrency control scheme for shared objects: a peephole approach based on semantics (extended abstract)	1987	4.930136855018908	5.597960093443304	3290349
3291697	HPC	restructuring fortran programs for cedar	1991	5.804246214054485	6.561481121982952	3291724
3291784	PL	lr&#8212;automatic parser generator and lr(1) parser	1981	5.527951858860134	6.741596973364536	3291811
3292078	SE	oolaca: an object oriented library for abstract and computational algebra	2004	4.970919620941733	7.073289580902758	3292105
3292263	HPC	some techniques for compile-time analysis of user-computer interactions	1980	5.214838066725589	7.379653941598152	3292290
3293820	PL	ldt: a language definition technique	2011	5.271864697212055	6.597410647155242	3293847
3294136	ML	incremental data flow analysis in a structured program editor	1984	4.451481758121633	6.362518618936464	3294163
3294185	AI	saying hello world with grgen.net - a solution to the ttc 2011 instructive case	2011	5.388266064110391	7.034235830314247	3294212
3294238	PL	freely annotating c#	2005	5.965982579499173	7.292304398739697	3294265
3294294	PL	pop, a broad-spectrum programming language, 1967–2002	2002	4.8555552373007735	6.365831825086946	3294321
3294393	Logic	oop and interval arithmetic - language support and libraries	2003	5.103731033337938	6.545663776845786	3294420
3294764	Embedded	modeling of resilient systems in default logic	2013	4.745618950629669	5.678928998307232	3294791
3295429	AI	a blackboard architecture for guiding interactive proofs	1998	4.974343585483247	6.112941323662612	3295456
3295774	PL	verification of object-oriented software. the key approach - foreword by k. rustan m. leino	2007	5.521909155507876	7.368388666658891	3295801
3295985	Visualization	a burroughs 220 emulator for the ibm 360/25	1971	6.253211487589207	6.106600613726469	3296012
3296034	PL	interlanguage working without tears: blending sml with java	1999	5.540463389873495	7.149844175078714	3296061
3297090	PL	a separate compilation facility for pascal	1982	5.6016579903391275	7.059779943452973	3297117
3297151	PL	a tool for ownership and confinement analysis of the java object graph	2002	5.347107427911972	7.39183137321599	3297178
3297875	Logic	theory of processes	2010	4.635793919157571	5.844129375541414	3297902
3298470	Theory	coroutines in pascal	1983	4.902848891942776	6.549027078788682	3298497
3298515	PL	lowering the learning curve for declarative programming: a python api for the idp system	2017	5.251804757099127	7.0587406124491645	3298542
3298697	SE	combining vdm-sl specifications with c++ code	1996	6.090696817794847	6.517762020802999	3298724
3299157	PL	java network programming - covers java 2, jdk 1.2 and 1.3 (2. ed.)	2000	6.258937175702847	5.538743885845836	3299184
3299240	SE	a knowledge-based approach to using efficiency estimation in program synthesis	1979	5.78720895022414	5.8853223956701175	3299267
3299539	HPC	up-to-date international standards of the fortran programming language	2001	6.03239363243294	6.339401709799538	3299566
3300056	Robotics	verification of an avionic system using timed model checking	2004	6.120374802676247	6.393146864631803	3300083
3301497	HCI	a methodology for building translator-oriented dictionary systems	2000	6.099174901597143	5.987609487557185	3301524
3302093	PL	automated inversion of logic grammars for generation	1990	4.393868070678842	6.191173367094339	3302120
3302690	PL	controlling speculative computation in a parallel functional programming language	1985	4.993384351463943	5.649023580110943	3302717
3303230	PL	creating textual language dialects using aspect-like techniques	2009	5.003083421846316	6.902125481132343	3303257
3303458	Theory	subrecursive programming languages, part i: efficiency and program structure	1972	4.669678436246024	6.6017750664204025	3303485
3303561	Logic	on various abstract understandings of abstract interpretation	2015	6.02349701889024	6.965922940683544	3303588
3303665	PL	a proof dedicated meta-language	2002	5.017410323770797	7.2261509256716865	3303692
3303746	PL	runcible-algebraic translation on a limited computer	1959	5.022854721313258	6.632104437987088	3303773
3304448	HCI	senac: a high-level interface for the nag library	1991	5.561262826293619	6.41401001711369	3304475
3304614	Logic	tsukuba termination tool	2003	5.375944660253631	6.371887689470941	3304641
3305633	PL	toward an architecture for quantum programming	2001	4.890523407239878	6.9575453438509385	3305660
3305834	HPC	a high-level debugger for pl/i, fortran and basic	1982	5.990089863749403	6.806450622136903	3305861
3306557	PL	the a+ programming language, a different apl	1990	5.5042918320152285	7.040745188041428	3306584
3307318	Arch	systems programming with jsp: example - a vdu controller	1985	6.0097772925668105	5.852833431499564	3307345
3307543	PL	external representations of objects of user-defined type	1980	4.913183313086089	7.098651927689304	3307570
3307791	PL	associated types and constraint propagation for mainstream object-oriented generics	2005	4.561695468629619	7.238092632436412	3307818
3308214	PL	complex values in smalltalk	2009	4.568291490834759	7.1352788530776765	3308241
3309346	PL	a rewriting logic approach to static checking of units of measurement in c	2012	4.744149273762614	6.424461346703238	3309373
3309524	Robotics	representation and programming for a robotic assembly task using an assembly structure	2007	5.102877856143718	5.946814145376543	3309551
3309600	PL	a fortran technique for simplifying input to report generators	1966	4.920112273997122	6.088149904185707	3309627
3310522	NLP	openmath language extensions	2014	5.279952234202862	6.6988089609253345	3310549
3311103	PL	a declarative language for the coq proof assistant	2007	4.474278501848424	7.087060771755116	3311130
3311972	AI	meta-s - combining solver cooperation and programming languages	2005	5.320965242956717	6.111679563969602	3311999
3311988	Logic	symo2: objects and classes for symbolic computation systems	1992	5.2242413287527665	6.299103768524388	3312015
3312168	DB	the modelling language zinc	2006	6.031113193674003	7.1845390293742195	3312195
3312335	Logic	synthesizing different development paradigms: combining top-down with bottom-up reasoning about distributed systems	1995	5.815011417666594	6.083560643686911	3312362
3313232	PL	a model and an implementation of a logic programming environment	1985	5.199995757652398	6.191548642466513	3313259
3313826	Logic	principled software microengineering	2015	5.423993333755727	6.942667700499327	3313853
3314508	Web+IR	on the efficiency of a new method of dictionary construction	1960	4.900985123831499	6.186887966245604	3314535
3315004	PL	madcap: a scientific compiler for a displayed formula textbook language	1961	4.8635247687262515	6.289751246077846	3315031
3315762	EDA	a method for partitioning unity language in hardware and software	1994	5.517341585015764	5.734577013959421	3315789
3315871	PL	defining dynamic variables and abstract data types in pascal	1984	5.011515933024491	7.352352243892229	3315898
3316604	SE	parallel programs implementing abstract data type operations - a case study	1998	5.653361093537967	6.203346123510278	3316631
3316988	Vision	factory: statically type-safe integration of genericity and reflection	2003	5.929844987964272	6.073555071442804	3317015
3317291	EDA	implicit places and refactoring in sound acyclic extended free choice workflow nets	2016	5.940576928121113	5.7392029807441975	3317318
3317422	Logic	a flexible framework for hardware, software design space exploration using rewriting logic	2010	6.057568956450531	6.180476317506543	3317449
3317527	PL	electre: a language using control structure expressions to specify synchronization	1985	5.2715103459970605	7.2588403089709255	3317554
3317754	PL	scanning and parsing languages with ambiguities and constraints: the lamb and fence algorithms	2015	5.360824746678031	6.900293797336528	3317781
3317800	HCI	case-based planning	2005	5.755640121331867	5.9605175201274045	3317827
3318938	SE	the production of special function routines for a multi-machine library	1976	5.808707549746826	6.343229062964023	3318965
3319306	PL	a course in computer structures	1976	5.32210199262398	6.9122151565593315	3319333
3319672	Robotics	manipulating ltl formulas using spot 1.0	2013	4.910439356860095	6.7928620691231725	3319699
3319749	DB	object migration	1994	5.3597820375234875	6.7011933397335275	3319776
3319853	PL	a critique of modula	1979	5.474886295344309	6.710206336190993	3319880
3319985	EDA	towards a verification of the rule-based expert system of the ibm sa for os/390 automation manager	2001	5.3193229104559245	6.94871069790164	3320012
3320071	NLP	reconstructing hard problems in a human-readable and machine-processable way	2008	5.046885739526632	6.113098198610617	3320098
3321499	PL	object oberon - a modest object-oriented language	1989	5.816348728262604	5.839194101476754	3321526
3321552	AI	a system with template answer set programs	2004	5.463026443851417	6.186463155990496	3321579
3322050	OS	grasshopper: an orthogonally persistent operating system	1994	5.9523583416887895	7.024359394563624	3322077
3322243	Logic	a formal denotational semantics of uml in object-z	2001	5.370095796581961	6.002582905797566	3322270
3322882	Crypto	how to brew-up a refinement ordering	2009	4.535603203862646	6.579840492903963	3322909
3323147	Logic	string analysis and synthesis in sl5	1976	4.915486814715702	5.8471086288087095	3323174
3323216	Networks	food: an agent-oriented dataflow model	2004	5.460361539548751	7.110521220247994	3323243
3323262	PL	deltatalk: an empirically and aesthetically motivated simplification of the smalltalk-80 language	1987	6.012514513600952	6.44179224703771	3323289
3323311	Visualization	workshop summary	1980	4.655359155924239	6.215496535736499	3323338
3323405	PL	structured data flow programming	1982	6.209232450340427	6.886013604500046	3323432
3324265	PL	semantic navigation of large code bases in higher-order, dynamically typed languages	2005	6.098002806099265	7.176422761219523	3324292
3324545	SE	towards automated program abstraction and language enrichment	2013	4.4558557839174435	6.251421803613237	3324572
3324561	PL	from plain prolog to logtalk objects: effective code encapsulation and reuse	2009	5.9090680556003425	7.287647879963338	3324588
3324908	PL	the definition mechanism for standard pl/i	1977	4.728125722288539	6.620776191783477	3324935
3325595	PL	type checking with xml schema in xact	2006	5.376533637396222	6.923285036184474	3325622
3325668	OS	spdebugger: a fine-grained deterministic debugger for concurrency code	2017	5.473868854630622	5.903369046029026	3325695
3325695	PL	co-arrays in the next fortran standard	2005	5.413241317614172	6.538548519883188	3325722
3326721	PL	clisp: conversational lisp	1973	5.3028496868151915	6.557495412364597	3326748
3326814	NLP	unification of fusion theories	2004	4.6542514328122	5.560707244899174	3326841
3326936	Embedded	moore: interval arithmetic in modern c++	2016	5.794543572280369	6.2383331901094765	3326963
3326941	DB	declarative languages - paradigm of the past or challenge of the future?	1990	6.1177976759164965	5.975405208037139	3326968
3327722	Security	an algebra for enterprise privacy policies closed under composition and conjunction	2006	4.89927538177651	6.9058220027432125	3327749
3328811	AI	the 2 pak language: goals and descriptions	1975	5.6404657367045425	6.105403701338549	3328838
3328824	NLP	verifying functional formalizations - a type-theoretical case study in pvs	2013	4.381090983849302	7.3049055195537225	3328851
3330129	PL	an alternative to subclassing	1986	5.09806102320629	7.052605676471872	3330156
3330242	PL	an overview on modpascal	1985	6.015731842386317	6.84303785826934	3330269
3330439	Arch	alternative proposals for implementing prolog concurrently and implications regarding their respective microarchitectures	1984	4.782034081024485	6.536140133846967	3330466
3331128	PL	beyond structured programming	1996	5.5281479744213184	5.659441481289598	3331155
3331408	PL	alias control is crucial for modular verification of object-oriented programs	1999	5.652812855162737	5.642162427214746	3331435
3331581	PL	programming languages, oop, and c++	1990	5.702758328930732	6.566113377313238	3331608
3332165	NLP	bidirectional chart generation of natural language texts	1993	4.554545359244448	6.1737554198178985	3332192
3332187	NLP	the design of a pascal compiler	1971	5.812896420660117	6.621958773226452	3332214
3332967	NLP	partial evaluation for efficient access to inheritance lexicons	1998	4.428556384235819	5.937611833839625	3332994
3333188	PL	an algol-based associative language	1969	5.1247184033400766	5.659253868946358	3333215
3333532	Theory	the use of hierarchy and instance in a data structure for computer music	1978	6.293750731406591	5.537127913234427	3333559
3333827	OS	understanding trust management systems	2001	4.788001085089658	5.791130832445898	3333854
3334178	SE	methods and tools for modelling the behaviour of information-transport ports in distributed software configurations	1990	6.1143923087160745	6.579137459882102	3334205
3334792	PL	grammatical inference and language frameworks for langsec	2015	5.506232592465105	7.271959207014387	3334819
3334911	HPC	using < stdio.h > in the output of the fortran to c translator, f2c	1997	5.431915985083567	6.722576615563726	3334938
3335296	HPC	the convex application compiler - a major step into the direction of automatic parallelization	1992	6.126313425415233	6.595787306868893	3335323
3335785	Logic	systematic synthesis of functions	2006	4.5534533710547365	6.895853369963271	3335812
3336101	NLP	experience of xml-based source code representation with parsing actions	2007	5.884777281915147	6.6732572574549005	3336128
3336151	SE	applying prolog programming techniques	1994	5.648581551610556	6.5292344499869275	3336178
3336236	PL	actra - an industrial strength concurrent object-oriented programming system	1991	5.7853862556628375	5.598787717135236	3336263
3336699	SE	xerror, the slatec error-handling package	1983	6.29934645905361	6.311324516646121	3336726
3337020	SE	guarded and unguarded coroutines: an implementation in bcpl	1984	5.129297890440929	6.846935437379477	3337047
3337368	PL	development of functional reactive programming using an incrementally modular abstraction hierarchy	2015	6.305985573675734	6.385371276400758	3337395
3337668	OS	the operating system: should there be one?	2013	5.553076069797819	7.009366085748291	3337695
3337720	PL	applying classification and inheritance into compiling	1993	5.1550221895815875	6.916218210128805	3337747
3337926	PL	fluents: a refactoring of prolog for uniform reflection an interoperation with external objects	2000	6.010152734279276	7.423060720026985	3337953
3338161	PL	specifications and their use in defining subtypes	1993	4.643629662200227	7.135505078321575	3338188
3338188	HPC	structured programming for virtual storage systems	1975	6.051280870383697	6.398963889356046	3338215
3338278	SE	pragmatic formal specification of system properties by tables	2015	4.949804605839144	6.141425034858174	3338305
3338502	Theory	a note on some compiling algorithms	1964	5.538328162888874	6.309215474011835	3338529
3338780	NLP	table-driven bottom up parser in prolog	1989	4.561342559707723	6.4969899439538175	3338807
3339029	PL	pragmatics of modular sos	2002	5.48695107128286	7.191662231251137	3339056
3339535	Logic	proofs and pedagogy; science and systems: the grammar tool box	2007	5.286144197197086	6.616971568998567	3339562
3339821	EDA	formal methods for embedded systems co-design: the fordesign project.	2005	5.967850953324711	6.099973048656029	3339848
3340110	DB	a transformational approach to object-based concurrent reflective language.	1997	5.84458475123063	5.537653611317616	3340137
3340178	HPC	automatic generation of multiple exit parsing subroutines	1974	5.613953366256382	6.952265600843254	3340205
3340513	PL	fitting spheres by the method of least squares	1961	4.92468076296541	6.408248211703688	3340540
3340964	PL	the txl source transformation language	2006	5.39624206508434	6.732162585793297	3340991
3341213	SE	lexical state analyzer for javacc grammars	2016	6.128749058462968	7.0672111244623315	3341240
3342156	PL	the design of owl a language for walking	1983	6.090942721667818	5.979289345810543	3342183
3342165	PL	syntax-directed pretty printing&#8212;a first step towards a syntax-directed editor	1983	5.644858275958357	6.587864241971762	3342192
3342412	SE	lattice structure segmentation of algol-like programs	1979	4.984755092817048	6.661076217859354	3342439
3343396	PL	formalisation and analysis of dynamic behaviour in object-oriented systems	1999	6.219366968438018	5.578024506058756	3343423
3343815	PL	a knowledge-based interactive verifier for logic programs	2014	4.847562361170347	7.279591924234942	3343842
3344050	PL	interactive programming with dependent types	2013	5.000070731147062	7.154671770656981	3344077
3344292	Mobile	towards a greater reliability of driver/device communication around the system life cycle through a contract-based protocol specification	2018	6.205575025013803	5.939927468823474	3344319
3345106	HPC	a pse for finite element method	2010	5.916449194623993	5.874250572554822	3345133
3345185	PL	multiple evaluators in an extensible programming system	1972	6.195700560934916	6.873767150253066	3345212
3345664	AI	fragment shaders for agent animation using finite state machines	2005	4.599537420967073	6.517397296220003	3345691
3346114	PL	efficient implementation of open types	2006	4.396064687699715	6.909394500707502	3346141
3346496	SE	programming-in-the-large versus programming-in-the-small	1975	6.162035331070817	6.964326250354005	3346523
3346714	PL	a deterministic technique for extracting keyword based grammar rules from programs	2006	4.557926305335429	6.308397194019895	3346741
3347077	PL	parametric fortran - a program generator for customized generic fortran extensions	2004	4.88816932261145	7.421332708880211	3347104
3347628	SE	invariant assertions, invariant relations, and invariant functions	2013	4.848789721009972	7.325712564935294	3347655
3348258	NLP	low-level typographical spellchecking: a proposal	1996	4.708421939083752	5.932564003676318	3348285
3349010	Logic	a petri net method for the formal verification of parallel processes	1988	5.697847354893595	5.5887782196165166	3349037
3349181	PL	how to solve the reuse problem? functional programming	1998	4.904486119500526	7.298744983403279	3349208
3349223	NLP	an extensible proof text editor	2000	4.763978984552467	6.4160234730029595	3349250
3349389	EDA	"""comments on """"heuristic synthesis of microprogrammed computer architecture"""""""	1977	4.575352703921337	5.885103619426656	3349416
3349990	SE	usability of deterministic and stochastic petri nets in the wood industry: a case study	2014	5.205031936561738	5.650240351900594	3350017
3350449	PL	subtypes vs. where clauses: constraining parametric polymorphism	1995	4.426850830630316	7.390957750039686	3350476
3350724	HPC	testing algol 60 compilers	1976	5.734244382598513	6.194000696449036	3350751
3351910	PL	automatic construction of an r matrix	1999	5.696305655681617	6.740368389655394	3351937
3352007	EDA	systemc workload model generation from uml for performance simulation	2007	6.189940936552956	5.902058831555034	3352034
3352335	DB	compiling horn-clause rules in ibm's business system 12: an early eperiment in declarativeness	1998	5.067330232198342	6.087798062905837	3352362
3353443	PL	herbarium racketensis: a stroll through the woods (functional pearl)	2017	5.539628518625065	6.176821536110553	3353470
3353612	DB	undo as concurrent inverse in group editors	2002	6.207302042352168	6.348144716138557	3353639
3353968	PL	adding dynamic interfaces to smalltalk	2002	6.000717919724298	7.0357610106363815	3353995
3354202	PL	recursive processes and algol translation	1961	4.9140635463156395	6.555326651112107	3354229
3354280	PL	expressive genetic programming	2013	5.193855931576463	6.470082958953843	3354307
3354909	SE	projections of logic programs using symbol mappings	1995	5.050804020082468	6.89853125303989	3354936
3356495	PL	comparing load & go and link/load compiler organizations	1980	5.0793867340855	7.02869100262133	3356522
3357009	Theory	a derivation oriented proof of the schorr-waite marking algorithm	1978	4.834857633896249	7.286437348724838	3357036
3357120	Logic	specification and verification of meta-programs	2012	6.147202447486711	7.299859930247817	3357147
3357795	DB	description and improvement of iterative program transformations	1985	4.516444320321045	6.4270684468208	3357822
3357940	PL	dynamic evaluation forms using declarative modeling	2018	6.261794277732607	7.200088195317317	3357967
3358572	Logic	verification of a multidestination protocol using temporal logic	1982	5.3565157709195095	5.8551928187642215	3358599
3358832	PL	types and sets in gödel and z	1995	4.81561071856793	6.962026132124479	3358859
3358949	Theory	genetica: a computer language that supports general formal expression with evolving data structures	2003	6.290797269095049	5.994968943749202	3358976
3359257	Theory	object-oriented intensional programming in the gipsy: preliminary investigations	2005	5.581565616963598	5.7576511338467835	3359284
3360697	PL	naming subprograms with clarity	1982	5.559247525206512	6.987213931792973	3360724
3361232	SE	converting a portable pascal p-code interpreter to a code generator	1989	5.340290872689816	7.048014521662594	3361259
3361449	PL	b73-8 systems programming	1973	5.76579137445296	6.581981049247447	3361476
3361567	PL	experience report: haskell in computational biology	2012	6.255083457410501	7.235781285059398	3361594
3361690	Logic	design of the real time systems using temporal logic specifications: a case study	1996	5.257914169326422	5.850341759188615	3361717
3362070	AI	abstraction morphisms for world modelling in high autonomy systems	1991	6.0160732051820025	6.156368962138138	3362097
3363075	PL	fjquantum - a quantum object oriented language	2016	5.004746860372639	7.2593436369286195	3363102
3363235	PL	hlinear: exact dense linear algebra in haskell	2016	5.09857027188214	6.940612261093889	3363262
3363396	Logic	testing the suitability of markov chains as web usage models	2003	6.129144565232755	5.614746916135156	3363423
3363647	SE	petri nets for modeling of dynamic systems: a survey	1994	5.769906497954235	6.146585722314309	3363674
3363721	EDA	ice™ and ice/t™: tools to assist in compiler design and implementation	2004	5.757160725276369	7.163116538924266	3363748
3363990	SE	generic traces and constraints, gentra4cp revisited	2011	5.800100055524237	6.761598013605942	3364017
3364573	SE	wins and losses of algebraic transformations of software architectures	2001	6.070243134233094	7.1206098628963	3364600
3365396	PL	carrier arrays: an idiom-preserving extension to apl	1981	4.647405467913294	6.593213121629626	3365423
3365432	SE	direct update of data flow representations for a meaning-preserving program restructuring tool	1993	4.745449316187328	7.335553589985192	3365459
3365492	PL	yacc is dead	2010	4.391549333638913	6.768826428901598	3365519
3365950	SE	the architecture of the plain data base handler	1981	5.761940040120323	6.678761686334683	3365977
3366613	PL	an algorithm for structuring programs	1976	4.826317635572209	7.394089760470389	3366640
3367006	PL	on the object-orientedness of c++	1991	4.585415631167258	7.122190918764695	3367033
3367902	Theory	letters to the editor: on the reference counter method	1963	5.270229036081379	6.228045212330768	3367929
3368758	PL	book review: prolog for programmers by feliks kluzniak and stanislaw szpakowicz (academic press)	1988	5.432686619182558	6.44914706824667	3368785
3369921	PL	generative type abstraction and type-level computation	2011	4.667005389330648	7.172128149243356	3369948
3369938	Logic	specification, transformation, and programming of concurrent systemsin rewriting logic	1994	5.2209053941433945	6.211520337166675	3369965
3370200	DB	data stream linkage mechanism	1978	5.948830066751349	5.826682850893397	3370227
3370583	PL	construction of a modular and portable translation system	1986	5.602656117298043	6.542187648927784	3370610
3371286	PL	ultra-fast aliasing analysis using cla: a million lines of c code in a second	2001	5.096873253353288	7.297362972067988	3371313
3371664	SE	proofs, program correctness, and software engineering	1983	4.998783780103755	5.5940603480559306	3371691
3371746	PL	intersecting classes and prototypes	2003	5.3740945966595115	7.158993102833714	3371773
3372544	PL	designing new programming constructs in a data flow vl	1998	6.287385592732898	6.062612307606886	3372571
3372895	PL	a persistent programming environment for teaching object-oriented concepts	2002	5.641537477171801	7.223189967098551	3372922
3373218	Graphics	high level languages for gpus	2005	5.777253195509082	7.142945608181237	3373245
3373560	Theory	a comparison between petri-nets and graph grammars	1980	5.808260402815218	7.425754398938849	3373587
3374139	PL	is pascal suitable for gks?	1983	5.8081961909507145	6.327891295247098	3374166
3374816	Theory	verifying absence of ∞ loops in parameterized protocols	2008	5.498405525368904	6.254000499961747	3374843
3375075	AI	visual generalized rule programming model for prolog with hybrid operators	2007	5.681349850913818	5.899323339473505	3375102
3375754	Logic	towards an algebraic theory of inheritance in project oriented programming	1993	4.509390913028226	7.109027875798475	3375781
3375759	PL	an object oriented approach to parser generation in c++	2000	6.102046400517079	6.875348936763023	3375786
3375935	PL	efficient retargetable code generation using bottom-up tree pattern matching	1990	4.606650943854196	6.830937608470789	3375962
3375990	PL	hocore in coq	2015	4.378222434668771	6.438012413303146	3376017
3376125	DB	on modeling top-down vlsi design	1994	6.030190371237823	5.534347574305543	3376152
3377014	PL	no blocking on yesterday's embedded csp implementation - (the rubber band of getting it right and simple)	2006	5.946415663902497	6.018013597167933	3377041
3377398	PL	super-languages: developing languages and applications with xmf (second edition)	2015	5.619327789779921	6.670976071779494	3377425
3377625	PL	nemo/hecke: computer algebra and number theory packages for the julia programming language	2017	4.9064759433720315	6.924322422205963	3377652
3378358	PL	haskell 98 libraries: character utilities	2003	5.227010136286423	5.705204188605075	3378385
3378478	PL	concurrent object-oriented data flow diagrams	2000	5.9096420941064265	5.62401518201433	3378505
3381203	PL	yet another meta-language for programming language processing	2002	5.131655409684026	6.8881645673371485	3381230
3381409	PL	semantics and type checking of dependently-typed functional programs	2004	4.6490687771921015	5.575594987514802	3381436
3381458	SE	interpolation in software model checking and fault localization = interpolation in software model checking und defektlokalisierung	2014	5.31325500185033	5.6330791604107056	3381485
3381709	SE	software measurements and their influence upon machine language design	1969	6.274796615456759	6.349704080454121	3381736
3381740	PL	sometimes an fexpr is better than a macro	1986	4.578366026383024	6.664116269322005	3381767
3381932	SE	specification and evaluation of logic-based model checking	2000	4.8210236348069415	5.695789556447332	3381959
3382619	PL	automatic inference of models for statistical code compression	1999	4.6817362292091484	7.366155295212348	3382646
3382751	Theory	event list management - a tutorial	1983	5.4768589677527535	6.2892596398239515	3382778
3382962	SE	groovy parallel! a return to the spirit of occam?	2005	5.611936718934777	7.1886786635649225	3382989
3383224	PL	single versus multiple inheritance in object oriented programming	1994	4.7100251763295535	6.967938635448616	3383251
3383625	NLP	a prototype of a grammar checker for czech	1997	5.6043747209265184	6.509597744546023	3383652
3384239	PL	extending an iterator model for binary trees to backtracking problems	1998	6.186700367385877	6.389302353083592	3384266
3384519	DB	expressiveness and language choice	1985	4.4201811224110665	6.843471962974454	3384546
3384800	Arch	a model for or-parallel prolog execution using graph reduction	1990	4.673708411616842	5.587187077901606	3384827
3384841	PL	the isabelle framework	2008	4.7238621930701035	6.779469836505022	3384868
3385214	HCI	theorema 2.0: a system for mathematical theory exploration	2014	5.710992222549571	6.3646505891408385	3385241
3385495	SE	unity doesn't imply unification or overcoming heterogeneity problems in distributed software engineering environments	1991	5.940961664504662	6.761222312509125	3385522
3386714	Logic	type-checking systems with particular applications to functional languages	1976	4.941216765158795	5.726308870765838	3386741
3387832	Graphics	vdm specification of an algorithm for graph decomposition	2007	6.072899078545131	6.902554398894594	3387859
3388150	DB	harmonizing classes, functions, tuples, and type parameters in virgil iii	2013	5.422368228637948	7.129554175074304	3388177
3388548	PL	why are we using java again?	1998	5.532548055079959	7.388635829428138	3388575
3389567	PL	algorithm differentiation in lisp: adil	2014	4.792091729127303	6.65828866912289	3389594
3389614	NLP	bounded seas - - island parsing without shipwrecks	2014	5.781205683212256	7.25613087536964	3389641
3389788	PL	concept-oriented programming - classes and inheritance revisited.	2012	5.526065691238421	7.107914124837072	3389815
3390047	NLP	situations and computation: an overview of recent research	1996	5.984663516964817	6.2138835599185525	3390074
3390682	PL	towards a haskell/java connection	1998	5.546338484100287	7.378010996973789	3390709
3391945	PL	astlog: a language for examining abstract syntax trees	1997	5.180715864450764	7.160055597824599	3391972
3392075	PL	algorithm engineering	1999	4.7220255340498785	5.579590747237023	3392102
3392156	PL	keywords: special identifier idiom	1999	4.90178780747495	6.870035150393788	3392183
3392323	PL	instruction sequences with indirect jumps	2007	4.5354859292691545	7.045662110662037	3392350
3393078	PL	commonloops: merging lisp and object-oriented programming	1986	5.777370892355315	7.423752037991786	3393105
3393312	Graphics	"""letter to the editor: a """"subprofessional"""" comments"""	1967	4.8710311507342015	6.222976010063849	3393339
3393475	PL	exercise solution check specification language for interactive programming learning environments	2017	6.082959753763063	6.786768005512292	3393502
3393957	HCI	computer algebra implemented in isabelle's function package under lucas-interpretation - a case study	2013	4.503736812539086	5.915473325433978	3393984
3394317	PL	tribal ownership	2010	4.524074323035026	7.347343724963019	3394344
3394865	PL	back-propagation of knowledge from syntax tree to c source code	2004	5.579650033821284	6.093175597077472	3394892
3396042	PL	aliasing in object-oriented systems	2001	4.8750492557678875	7.179482983778723	3396069
3396097	PL	an integration of logic and object-oriented programming	1988	4.996661907591981	6.883432630982378	3396124
3396357	PL	the euclid language: a progress report	1978	4.943809964078109	6.3569239944246485	3396384
3396729	Logic	towards a new formal sdl semantics - outline of an abstract state machines	1999	5.742618158403232	6.0925738894277135	3396756
3397311	PL	"""a note on """"protecting against uninitialized abstract objects in modula-2"""""""	1987	4.731859822583076	6.618763906312267	3397338
3398098	PL	g is for grammars: an extension of lisp	1988	5.506302482561015	6.112544409577015	3398125
3398354	PL	design and implementation of an optionally-typed functional programming language	2017	6.0067493348935805	7.259163698885598	3398381
3399161	Robotics	models of computation for reactive control of autonomous mobile robots	2012	4.973120989370049	5.910892388161142	3399188
3399295	EDA	there's more to oop than syntax!	1994	5.960671244021768	6.667421102456768	3399322
3400322	PL	the logical execution time paradigm	2012	5.819096472081796	6.514301065872985	3400349
3400750	PL	a framework approach to teaching data structures	2003	6.185536142658483	6.366373962215427	3400777
3401028	Vision	experiences using estelle within sedos estelle demonstrator	1989	6.2143571079379525	5.759459599848005	3401055
3401156	PL	an object-oriented view of backtracking	2000	5.04261676990942	6.651178164927746	3401183
3401287	SE	trade-offs in true concurrency: pomsets and mazurkiewicz traces	1991	4.395693284367922	5.914389294244262	3401314
3401930	PL	refreshing patterns	2006	5.964637554732593	6.683187197148267	3401957
3402026	SE	generalized behavior-based retrieval	1993	5.275839299927228	6.605620126737479	3402053
